%chk=blank.chk
# hf/3-21g

Title Card Required

0  1
C          -0.65346        -1.25638        -0.04260
C          -1.35030        -0.04820         0.06149
C          -0.64316         1.14066         0.10438
N1          0.70165         1.21904         0.06068
C           1.40086         0.05609        -0.03079
C           0.74810        -1.17963        -0.08910
C           2.88162         0.16985        -0.06906
N2          3.58188        -0.99187        -0.16137
C           4.92610        -0.91006        -0.20929
C           5.63152         0.28105        -0.17178
C           4.93566         1.49023        -0.06613
C           3.53415         1.40701        -0.01289
C           5.64240         2.79397        -0.01660
C           5.08446         3.95671        -0.58127
C           5.75059         5.18669        -0.53592
C           7.00016         5.28194         0.06657
C           7.57825         4.15065         0.63164
C           6.90364         2.92505         0.59564
C          -1.36245        -2.55509        -0.10111
C          -2.57115        -2.69775        -0.80778
C          -3.24846        -3.91881        -0.85748
C          -2.72637        -5.03355        -0.20709
C          -1.52815        -4.92411         0.49231
C          -0.85797        -3.69691         0.54654
H          -2.43341        -0.02137         0.12131
H          -1.16004         2.09307         0.18061
H           1.34249        -2.08491        -0.18307
H           5.44481        -1.86162        -0.28552
H           6.71393         0.25067        -0.23797
H           2.93442         2.30832         0.08346
H           4.11791         3.92105        -1.07982
H           5.29037         6.06753        -0.97629
H           7.52083         6.23523         0.09698
H           8.55353         4.21842         1.10675
H           7.37977         2.07005         1.07023
H          -2.99787        -1.85311        -1.34575
H          -4.18274        -3.99934        -1.40706
H          -3.25080        -5.98410        -0.24789
H          -1.11447        -5.79148         0.99895
H           0.06817        -3.64528         1.11561
