%chk=blank.chk
# hf/3-21g

Title Card Required

0  1
C          -0.64764        -1.24382        -0.03284
C          -1.34235        -0.03156         0.06289
C          -0.63690         1.15546         0.10531
N1          0.70666         1.23290         0.06786
C           1.40646         0.06874        -0.01420
C           0.75335        -1.16869        -0.07134
C           2.88576         0.18373        -0.03924
N2          3.58622        -0.97802        -0.13031
C           4.93035        -0.89621        -0.16860
C           5.63463         0.29513        -0.12082
C           4.93802         1.50421        -0.01545
C           3.53675         1.42119         0.02630
C           5.64748         2.80646         0.02982
C           5.10253         3.96318        -0.55655
C           5.79155         5.18315        -0.55496
C           7.05993         5.28475         0.02631
C           7.60602         4.14984         0.63722
C           6.90690         2.93630         0.64337
C           7.84242         6.57377        -0.01488
F           7.19054         7.58934        -0.64728
F           8.14793         7.04214         1.22686
F           9.03223         6.43580        -0.66421
C          -1.36548        -2.53786        -0.07892
C          -2.57892        -2.67219        -0.77761
C          -3.29680        -3.87417        -0.77792
C          -2.81644        -4.99001        -0.08445
C          -1.58981        -4.88434         0.58375
C          -0.87985        -3.67579         0.58847
C          -3.60068        -6.27766        -0.03519
F          -4.79836        -6.21204        -0.68312
F          -2.93058        -7.32265        -0.59510
F          -3.89104        -6.65996         1.23998
H          -2.42583        -0.00341         0.12073
H          -1.15390         2.10946         0.17413
H           1.34915        -2.07485        -0.15369
H           5.44984        -1.84711        -0.24742
H           6.71750         0.26451        -0.18287
H           2.93557         2.32197         0.11708
H           4.13251         3.92895        -1.04994
H           5.33180         6.05025        -1.02778
H           8.58711         4.20110         1.10809
H           7.36842         2.08592         1.14181
H          -2.98587        -1.83300        -1.33891
H          -4.24025        -3.92605        -1.31974
H          -1.18502        -5.74115         1.12118
H           0.05456        -3.63222         1.14591
