%chk=blank.chk
# hf/3-21g

Title Card Required

0  1
C          -0.73727         1.24548         0.46220
C          -1.29930        -0.03407         0.46542
C          -0.48593        -1.13327         0.23737
N1          0.84126        -1.06194         0.01134
C           1.41580         0.17082        -0.00133
C           0.64639         1.32539         0.20140
C           2.89112         0.21465        -0.19614
N2          3.46849         1.44704        -0.24880
C           4.82054         1.53042        -0.38698
C           5.61937         0.38705        -0.46186
C           5.05660        -0.89011        -0.42230
C           3.65989        -0.95274        -0.28897
C           5.90901        -2.16404        -0.51479
C           7.42462        -1.87987        -0.63941
C           5.70962        -3.02746         0.74879
C           5.49501        -2.98064        -1.75663
C           5.41827         2.88864        -0.45481
N           6.76818         2.95505        -0.60323
C           7.33224         4.17629        -0.68154
C           6.62213         5.36352        -0.60236
C           5.23294         5.32215        -0.41870
C           4.64291         4.04772        -0.37354
C           4.39113         6.60100        -0.31660
C           3.97162         7.03138        -1.73458
C           3.11826         6.38657         0.53544
C           5.16475         7.76644         0.34182
C          -1.55426         2.51311         0.76551
C          -3.03619         2.22805         1.10577
C          -0.94271         3.24018         1.98368
C          -1.53811         3.46519        -0.44817
H          -2.35284        -0.20893         0.65178
H          -0.89957        -2.13851         0.24163
H           1.14303         2.29208         0.17825
H           6.69147         0.52559        -0.55480
H           3.15706        -1.91626        -0.24849
H           7.80422        -1.33363         0.23278
H           7.65062        -1.28891        -1.53540
H           8.00065        -2.80889        -0.71388
H           6.01190        -2.48248         1.65079
H           6.30934        -3.94382         0.69695
H           4.66632        -3.33308         0.88241
H           5.62062        -2.39501        -2.67468
H           4.44983        -3.30374        -1.71083
H           6.10798        -3.88569        -1.85343
H           8.41063         4.17991        -0.81582
H           7.16851         6.29538        -0.68955
H           3.56899         3.93329        -0.27601
H           3.37797         6.25518        -2.23135
H           4.84388         7.23267        -2.36771
H           3.36587         7.94479        -1.70631
H           2.41557         5.69003         0.06525
H           2.57199         7.32582         0.67772
H           3.37040         5.99343         1.52775
H           6.02104         8.09091        -0.25895
H           5.53486         7.48553         1.33475
H           4.52151         8.64633         0.46331
H          -3.12978         1.58725         1.99064
H          -3.55524         1.73735         0.27402
H          -3.57959         3.15597         1.32091
H          -0.94469         2.59384         2.86941
H          -1.50981         4.14544         2.22990
H           0.09256         3.55058         1.80557
H          -1.97707         2.98825        -1.33224
H          -0.52364         3.78273        -0.71202
H          -2.11625         4.37445        -0.24152
