%chk=blank.chk
# hf/3-21g

Title Card Required

0  1
C           1.64439        -4.85955         5.96038
O           1.59597        -4.65778         4.53348
C           2.70159        -3.98081         4.07320
C           3.96303        -4.43845         4.46937
C           5.02794        -3.55623         4.50956
C           4.81508        -2.23563         4.15073
C           3.60771        -1.86143         3.55052
C           2.58060        -2.77534         3.36683
N           1.52842        -2.55938         2.39347
C           0.64883        -3.56935         2.00152
C          -0.24974        -3.09161         1.07018
C           0.14950        -1.76821         0.78108
C           1.28084        -1.46782         1.53037
P           2.16864         0.11702         1.40132
C           1.14707         1.30048         2.36319
C           1.58614         2.75908         2.24636
C           0.82179         3.50394         1.15231
C          -0.66801         3.51165         1.43519
C          -1.19239         2.08191         1.51621
C          -0.38661         1.21231         2.48042
C           2.63145         0.55209        -0.32478
C           3.34319         1.91096        -0.59203
C           4.85192         2.01436        -0.33788
C           5.63143         0.91186        -1.02451
C           5.04021        -0.44754        -0.68446
C           3.53118        -0.53568        -0.98958
H           2.55415        -4.48905         6.45236
H           1.56038        -5.93134         6.16057
H           0.80228        -4.34398         6.43292
H           4.08042        -5.45658         4.82584
H           5.99189        -3.88744         4.88386
H           5.60045        -1.49705         4.28794
H           3.54489        -0.82567         3.25216
H           0.72343        -4.56955         2.40141
H          -1.05492        -3.66357         0.63907
H          -0.36023        -1.11836         0.08222
H           1.47546         0.99092         3.37167
H           2.66728         2.83979         2.10007
H           1.38234         3.26050         3.20280
H           0.95265         3.02168         0.17900
H           1.20336         4.52479         1.06643
H          -1.18997         4.05467         0.63914
H          -0.86545         4.04742         2.37076
H          -1.18395         1.62591         0.52104
H          -2.24233         2.11451         1.83728
H          -0.76748         0.18611         2.46543
H          -0.64424         1.57614         3.49075
H           1.68781         0.57856        -0.88300
H           2.89284         2.74236        -0.06496
H           3.19668         2.13895        -1.65813
H           5.06140         2.00839         0.73653
H           5.21188         2.98110        -0.71798
H           6.68543         0.95529        -0.71907
H           5.62320         1.06676        -2.11147
H           5.23082        -0.67051         0.37191
H           5.57373        -1.20737        -1.26842
H           3.18492        -1.54706        -0.75422
H           3.42882        -0.42588        -2.07887
