%chk=blank.chk
# hf/3-21g

Title Card Required

0  1
C          -0.72394         0.93728         1.16956
N           0.70347         0.69864         1.06744
C           1.20065         1.13147        -0.22498
N           0.49619         0.44098        -1.28886
C          -0.93167         0.67905        -1.19194
N          -1.42416         0.24722         0.10261
C          -1.42705        -1.19347         0.26040
P           0.29482        -1.72071         0.16659
C           1.07960        -0.66164         1.39709
C           0.83539        -0.96520        -1.37893
H          -0.92758         2.01547         1.11417
H          -1.10748         0.63920         2.15481
H           2.28599         0.98163        -0.30407
H           1.06827         2.21686        -0.33203
H          -1.47377         0.18390        -2.00903
H          -1.14300         1.74768        -1.33479
H          -2.03566        -1.66624        -0.51864
H          -1.88311        -1.47659         1.21573
H           2.16960        -0.77402         1.38832
H           0.75613        -0.91663         2.41255
H           0.34643        -1.42591        -2.24465
H           1.91248        -1.09364        -1.53446
