%chk=blank.chk
# hf/3-21g

Title Card Required

0  1
C           1.35799         0.78918        -0.03166
C           2.81626         0.40827         0.11434
C           3.35793        -0.92922         0.12206
C           4.80604        -1.14336         0.37301
C           5.59657         0.04013         0.45442
C           5.02177         1.31453         0.28401
C           3.66606         1.50692         0.16234
O           6.95454        -0.04786         0.64611
C           7.58491         1.12987         1.15874
P           5.61683        -2.91208         0.54888
C           6.50648        -3.28714        -1.04860
C           7.56331        -2.24664        -1.43028
C           7.17109        -4.68087        -1.06188
C           5.46128        -3.36390        -2.18149
C           6.76346        -3.19265         2.05756
C           5.86618        -3.43853         3.29574
C           7.63466        -4.48129         1.99417
C           7.73721        -2.07233         2.41759
C           2.36539        -2.01719        -0.13482
C           1.69406        -2.13715        -1.42053
C           0.87675        -3.27657        -1.64128
C           0.74409        -4.30485        -0.70326
C           1.25395        -4.08005         0.57564
C           2.00989        -2.93229         0.92668
C           2.50445        -2.85749         2.39410
C           2.61406        -1.47676         3.06939
C           1.74740        -3.73449         3.42604
C           0.11680        -5.63544        -1.09909
C           0.89951        -6.85946        -0.59269
C          -1.34836        -5.76266        -0.67569
C           1.75820        -1.20965        -2.69401
C           0.48033        -0.38299        -3.01873
C           2.96046        -0.31054        -2.99997
H           0.66805        -0.04619        -0.15397
H           1.25380         1.44854        -0.90242
H           1.02100         1.36454         0.83530
H           5.62917         2.21506         0.22459
H           3.27704         2.51523         0.04919
H           8.56156         0.85510         1.56139
H           7.00835         1.58031         1.97852
H           7.74755         1.85290         0.35183
H           8.34729        -2.17221        -0.66916
H           7.12589        -1.25894        -1.58024
H           8.05531        -2.51470        -2.37178
H           8.08676        -4.71272        -0.47068
H           7.49067        -4.96577        -2.07258
H           6.49480        -5.46891        -0.70652
H           4.91953        -2.42857        -2.29644
H           4.72610        -4.16195        -2.01328
H           5.93289        -3.56952        -3.14416
H           5.18854        -4.28451         3.13319
H           5.28645        -2.55159         3.55305
H           6.45825        -3.69687         4.18539
H           7.10011        -5.34866         1.59614
H           7.99005        -4.77741         2.99630
H           8.55780        -4.32110         1.42762
H           7.21617        -1.17176         2.74592
H           8.41971        -1.84100         1.59570
H           8.37530        -2.36619         3.26471
H           0.39670        -3.41251        -2.61019
H           1.08510        -4.85900         1.30949
H           3.49942        -3.28783         2.35759
H           1.63194        -0.99772         3.14956
H           3.30287        -0.78960         2.58402
H           3.01282        -1.58815         4.08817
H           0.68955        -3.46031         3.48172
H           2.17782        -3.61853         4.42898
H           1.82978        -4.80328         3.20183
H           0.14353        -5.67579        -2.20493
H           0.91886        -6.93214         0.50531
H           1.93427        -6.84314        -0.95023
H           0.44226        -7.78416        -0.96052
H          -1.45196        -5.82768         0.41371
H          -1.78840        -6.67228        -1.10159
H          -1.93928        -4.91028        -1.02369
H           1.80147        -1.94080        -3.51662
H           0.49851         0.62319        -2.59152
H          -0.45213        -0.86299        -2.71298
H           0.42297        -0.21320        -4.10427
H           3.05334         0.53941        -2.33072
H           2.84939         0.13435        -3.99854
H           3.89301        -0.86527        -3.00519
