%chk=blank.chk
# hf/3-21g

Title Card Required

0  1
C           0.29816         2.07029         4.80385
C           0.85286         2.16324         3.39016
C           2.00315         1.17720         3.20670
C           1.62797        -0.30129         3.37329
C           1.06451        -0.37152         4.83705
C          -0.05206         0.63407         5.17167
P           0.51836        -1.13159         2.15342
C           0.92746        -1.19709         0.36546
C           0.94989         0.14730        -0.34532
C           2.32173         0.78065        -0.40369
C           3.51543        -0.13144        -0.63485
C           3.28795        -1.63522        -0.67347
C           1.89070        -2.14579        -0.34953
C           0.39554        -2.86426         2.62241
C           1.30214        -3.37832         3.53722
C           1.06798        -4.73915         3.58215
N           0.11523        -5.08607         2.73985
N          -0.44428        -3.93873         2.24526
C          -1.67322        -4.07226         1.46058
C          -2.31656        -5.33825         1.20432
N          -3.27617        -5.03074         0.22932
N          -3.30822        -3.71391        -0.06740
C          -2.46189        -3.07918         0.75103
C          -2.51653        -1.58451         0.63995
C          -2.79022        -0.70663         1.69995
C          -2.87305         0.69763         1.49919
C          -2.72773         1.25475         0.22410
C          -2.49651         0.40638        -0.83452
C          -2.41700        -0.98974        -0.64550
C          -4.19679        -5.87588        -0.47742
C          -4.84999        -6.94598         0.14351
C          -5.74345        -7.74439        -0.58631
C          -5.98459        -7.48630        -1.93517
C          -5.34274        -6.41803        -2.56143
C          -4.46791        -5.60572        -1.83206
C          -2.01102        -6.75688         1.67382
C          -1.77008        -7.04645         3.03064
C          -1.33735        -8.31625         3.46977
C          -1.25159        -9.37816         2.58152
C          -1.57821        -9.15674         1.24976
C          -1.92497        -7.86164         0.79898
H          -0.58411         2.71339         4.90720
H           1.04439         2.45563         5.51145
H           1.21672         3.18371         3.21962
H           0.05973         1.98162         2.65750
H           2.75690         1.41697         3.97341
H           2.52936         1.37066         2.28819
H           2.57462        -0.85375         3.35111
H           1.90045        -0.16211         5.52063
H           0.70820        -1.36694         5.11425
H          -0.25938         0.59255         6.24899
H          -0.97878         0.34385         4.66494
H          -0.01417        -1.64661         0.04097
H           0.24424         0.84908         0.11087
H           0.60630         0.00328        -1.37973
H           2.49387         1.29288         0.52927
H           2.31603         1.59710        -1.13301
H           4.25653         0.06961         0.15056
H           4.01041         0.18070        -1.56359
H           4.01004        -2.12680        -0.01155
H           3.56044        -1.98731        -1.68157
H           1.93294        -3.14833         0.08881
H           1.44129        -2.32196        -1.34629
H           2.08698        -2.87227         4.07797
H           1.57460        -5.50311         4.15788
H          -2.94649        -1.07961         2.70882
H          -3.07997         1.36073         2.33746
H          -2.78759         2.33035         0.09459
H          -2.36483         0.81532        -1.84112
H          -2.24588        -1.62871        -1.51130
H          -4.71084        -7.15966         1.19937
H          -6.25850        -8.56524        -0.09605
H          -6.67601        -8.11077        -2.49588
H          -5.52724        -6.21993        -3.61391
H          -3.96800        -4.78600        -2.34692
H          -1.83024        -6.25507         3.77426
H          -1.04606        -8.45433         4.50976
H          -0.90578       -10.35624         2.91955
H          -1.54546        -9.98887         0.55011
H          -2.13230        -7.75515        -0.26331
