%chk=blank.chk
# hf/3-21g

Title Card Required

0  1
C          -1.09986         0.91586        -1.29445
C          -1.61197         0.42365         0.05770
C          -0.91729         1.17647         1.20339
C           0.60791         1.02383         1.08371
C           1.08936         1.51365        -0.28119
C           0.41540         0.68066        -1.38712
C           0.73684        -0.83226        -1.19892
C           0.23798        -1.34849         0.19573
C          -1.29166        -1.06929         0.19485
C           0.96393        -0.46172         1.23276
P           0.53283        -3.23400         0.39727
C           2.36284        -3.39741         0.25917
C           2.72376        -4.87032         0.30066
C           2.21875        -5.80626        -0.62075
C           2.45227        -7.17498        -0.46083
C           3.21490        -7.63387         0.61401
C           3.80718        -6.71717         1.48189
C           3.58910        -5.34367         1.31055
C           0.04143        -3.83193         2.14358
C          -1.49377        -3.71362         2.37098
C          -1.91020        -4.19139         3.77557
C          -1.15094        -3.36125         4.82579
C           0.36510        -3.57493         4.66456
C           0.77787        -3.08641         3.27334
C           0.71578        -5.05485         4.79187
C          -0.06725        -5.86198         3.73950
C          -1.56265        -5.66991         3.94929
C           0.31721        -5.35894         2.33172
H          -1.33025         1.98285        -1.40784
H          -1.61245         0.39067        -2.10866
H          -2.69579         0.56988         0.12471
H          -1.26057         0.78294         2.17023
H          -1.19557         2.23648         1.18038
H           1.09332         1.59517         1.88152
H           2.17787         1.42257        -0.35158
H           0.84532         2.57480        -0.39911
H           0.77787         1.02098        -2.36166
H           1.82009        -0.96811        -1.30193
H           0.26967        -1.39812        -2.01553
H          -1.75778        -1.37327         1.12134
H          -1.78898        -1.63321        -0.60624
H           2.05127        -0.59394         1.17077
H           0.67362        -0.69122         2.24256
H           2.86790        -2.84928         1.05953
H           2.72787        -2.99205        -0.69031
H           1.59568        -5.47436        -1.45282
H           1.99908        -7.88718        -1.14529
H           3.33892        -8.70207         0.77702
H           4.39860        -7.07472         2.32107
H           4.02499        -4.65043         2.02867
H          -2.04842        -4.26948         1.60226
H          -1.82433        -2.68446         2.32359
H          -2.98904        -4.04871         3.90135
H          -1.46624        -3.64883         5.83394
H          -1.39693        -2.29659         4.70595
H           0.90074        -2.99129         5.42395
H           1.86504        -3.14262         3.15433
H           0.49837        -2.04548         3.28634
H           0.47177        -5.40741         5.79957
H           1.79469        -5.19437         4.65408
H           0.19567        -6.92261         3.83454
H          -1.84966        -6.00754         4.95184
H          -2.12350        -6.27933         3.23067
H          -0.20595        -5.95222         1.56899
H           1.37005        -5.57889         2.23582
