%chk=blank.chk
# hf/3-21g

Title Card Required

0  1
C           4.40220        -0.82671         2.27214
C           3.30276        -0.28852         1.35087
C           1.91345        -0.53261         1.93411
C           3.52802         1.16695         1.00095
C           3.55000         1.55452        -0.32385
C           3.89684         2.86417        -0.75262
C           4.25897         3.89176         0.18926
C           4.16079         3.48417         1.58554
C           3.77131         2.15560         1.93919
C           4.49125         4.36372         2.80961
C           3.24873         4.64752         3.68062
C           5.58611         3.72980         3.68685
C           4.64677         5.34752        -0.20143
C           3.99529         6.39840         0.50912
C           4.31912         7.76280         0.39715
C           5.30138         8.16450        -0.47726
C           5.93869         7.19445        -1.23078
C           5.61259         5.80499        -1.15960
P           6.53373         4.82753        -2.41892
C           5.80154         5.37642        -4.02055
C           5.73920         6.84449        -4.41693
C           7.09881         7.36221        -4.83017
C           7.66859         6.55584        -5.99593
C           7.51096         5.03806        -5.89425
C           6.21249         4.56938        -5.26247
C           8.28912         5.05631        -1.97642
C           8.50601         4.45019        -0.55639
C           8.43105         2.91396        -0.54244
C           9.42595         2.28454        -1.51249
C           9.36198         2.90408        -2.90758
C           9.38763         4.43259        -2.84733
C           3.88663         3.00301        -2.26500
C           4.90263         2.03683        -2.91837
C           2.53409         2.82745        -2.95116
H           4.29054        -1.90681         2.41202
H           4.37739        -0.35881         3.26187
H           5.39450        -0.64762         1.84062
H           3.37068        -0.87561         0.42426
H           1.75993         0.00480         2.87704
H           1.76383        -1.60503         2.11388
H           1.13710        -0.20083         1.24167
H           3.31911         0.79785        -1.07161
H           3.68461         1.88264         2.98963
H           4.91158         5.31807         2.49508
H           2.78962         3.72698         4.06384
H           2.47161         5.18264         3.12459
H           3.51328         5.25833         4.55329
H           5.21152         2.88341         4.27354
H           5.97323         4.46459         4.40180
H           6.42297         3.37807         3.07558
H           3.21078         6.15770         1.22122
H           3.81364         8.50307         1.01229
H           5.56068         9.21359        -0.60224
H           6.69791         7.55301        -1.92375
H           4.74320         5.12452        -3.90524
H           5.27344         7.47087        -3.65331
H           5.05803         6.94380        -5.27916
H           7.78518         7.33218        -3.97945
H           7.00796         8.41438        -5.12392
H           8.72992         6.80085        -6.10942
H           7.16979         6.88628        -6.91414
H           8.32857         4.61116        -5.32840
H           7.61316         4.59507        -6.89158
H           6.26809         3.49626        -5.06030
H           5.42014         4.68261        -6.02015
H           8.50332         6.12880        -1.92389
H           7.79416         4.85280         0.17220
H           9.49883         4.74886        -0.19529
H           7.41980         2.57480        -0.79220
H           8.62611         2.54770         0.47132
H           9.25093         1.20429        -1.57794
H          10.43835         2.41298        -1.10965
H           8.46614         2.55587        -3.43327
H          10.22136         2.54803        -3.49024
H           9.41525         4.87018        -3.84055
H          10.36001         4.71898        -2.41853
H           4.10667         4.03338        -2.47285
H           4.65550         0.98361        -2.74821
H           5.91731         2.15607        -2.52954
H           4.92561         2.17454        -4.00132
H           2.21836         1.78209        -2.98228
H           2.61503         3.17850        -3.98985
H           1.75924         3.42106        -2.45828
