%chk=blank.chk
# hf/3-21g

Title Card Required

0  1
B           0.47695        -0.28804        -0.25223
F          -0.20417        -1.21548        -1.13264
F           0.35137        -0.73368         1.12611
F          -0.12179         1.02888        -0.39475
F           1.87832        -0.24457        -0.62217
C           1.34981         2.41218         2.45007
C           2.23400         2.57976         1.24715
C           3.43290         1.63687         1.23747
C           4.18307         1.75354        -0.10188
C           4.99625         3.06253        -0.35310
C           5.99388         3.17480         0.83746
C           6.73281         2.15271         1.49052
C           7.38697         2.43178         2.70311
C           7.32286         3.71751         3.26133
C           6.59981         4.73099         2.62031
C           5.93678         4.42302         1.42985
C           4.94190         5.19339         0.74825
C           4.57730         6.51485         0.98318
C           3.47590         7.02916         0.26945
C           2.73023         6.19036        -0.57295
C           3.13187         4.85364        -0.78764
C           4.28849         4.37951        -0.16643
P           5.55337         3.04648        -2.23073
H           4.32235         2.67917        -2.90849
C           6.07642         4.79740        -2.95686
C           6.37420         4.76991        -4.46542
C           5.12422         4.42063        -5.30741
C           4.06721         5.51684        -5.11633
C           3.75809         5.68056        -3.63601
C           5.05835         5.95027        -2.83606
C           6.73886         1.53653        -2.38682
C           7.11333         0.87467        -3.75486
C           8.21303         1.57681        -4.56967
C           9.39507         2.03284        -3.68604
C           8.94641         2.73210        -2.40366
C           8.02731         1.80638        -1.61788
H           0.50337         3.12250         2.33668
H           1.92973         2.66925         3.35992
H           0.96372         1.37753         2.50963
H           2.55520         3.62115         1.29887
H           1.64903         2.41774         0.32051
H           3.06970         0.59053         1.32412
H           4.09405         1.81235         2.11231
H           3.47386         1.59212        -0.93441
H           4.88847         0.89673        -0.13754
H           6.75809         1.13794         1.11770
H           7.90863         1.64294         3.23198
H           7.79615         3.91293         4.21906
H           6.49659         5.69954         3.08656
H           5.13563         7.14833         1.65234
H           3.20163         8.07070         0.39121
H           1.86980         6.58036        -1.09899
H           2.56839         4.20562        -1.43891
H           6.96911         5.14090        -2.40291
H           7.20666         4.13145        -4.63131
H           6.74705         5.76219        -4.80211
H           4.71173         3.43323        -5.01148
H           5.38323         4.36354        -6.38429
H           3.13385         5.26963        -5.67015
H           4.45669         6.48135        -5.50612
H           3.27295         4.74365        -3.32757
H           3.03954         6.51675        -3.49323
H           4.92290         6.19403        -1.79025
H           5.50393         6.89060        -3.23095
H           6.16931         0.73838        -1.87339
H           6.22243         0.66025        -4.38464
H           7.56089        -0.11077        -3.49403
H           7.77266         2.37492        -5.14430
H           8.59867         0.91253        -5.37101
H          10.06762         2.70684        -4.25874
H           9.97132         1.13866        -3.37381
H           8.44566         3.67601        -2.64023
H           9.82383         2.98108        -1.77191
H           7.80893         2.27882        -0.66756
H           8.54960         0.84763        -1.40701
