%chk=blank.chk
# hf/3-21g

Title Card Required

0  1
C          -1.47815        -0.28978         0.21276
C          -0.92601         0.36870        -0.88039
C           0.46064         0.51324        -0.98051
C           1.32204         0.01591         0.01381
C           0.73688        -0.55700         1.15081
C          -0.64810        -0.74328         1.23391
P           3.10540         0.16255        -0.28592
C           3.78568         1.00273         1.17790
C           5.10078         0.76747         1.61262
C           5.66946         1.51340         2.65198
C           4.93488         2.51574         3.27696
C           3.63344         2.77400         2.86033
C           3.06892         2.03047         1.81730
C           3.80006        -1.52401        -0.25663
C           4.94703        -1.76764        -1.03513
C           5.53448        -3.03702        -1.10547
C           4.98346        -4.10887        -0.39926
C           3.86508        -3.88613         0.40421
C           3.27926        -2.61171         0.46127
C           5.63963        -5.43901        -0.50600
O           6.82495        -5.57240        -0.75771
O           4.80609        -6.48650        -0.33392
H          -2.55313        -0.43830         0.27369
H          -1.56938         0.75998        -1.66426
H           0.86406         1.02241        -1.85456
H           1.34994        -0.88404         1.98694
H          -1.07777        -1.24595         2.09692
H           5.72448         0.01972         1.12918
H           6.69523         1.32141         2.95714
H           5.38135         3.10414         4.07421
H           3.06045         3.56939         3.33062
H           2.06324         2.29243         1.49333
H           5.40354        -0.95756        -1.60636
H           6.42444        -3.18226        -1.71707
H           3.43495        -4.67748         1.01422
H           2.40334        -2.50868         1.08641
H           3.85685        -6.27029        -0.32270
