%chk=blank.chk
# hf/3-21g

Title Card Required

0  1
F           1.88364        -0.63142        -0.29442
C           3.15616        -0.14801        -0.31301
F           3.73847        -0.57586         0.84129
F           3.78952        -0.81472        -1.31793
C           3.23365         1.34953        -0.48871
C           2.08102         2.10432        -0.72683
C           2.17771         3.46033        -1.05766
C           3.42577         4.10041        -1.15637
C           4.56306         3.37276        -0.78653
C           4.47413         2.00569        -0.48183
P           3.44060         5.76916        -1.87249
C           4.28521         6.77838        -0.61237
C           5.67477         6.94072        -0.54267
C           6.25802         7.81232         0.38369
C           5.46408         8.54131         1.27766
C           4.07445         8.37292         1.22869
C           3.49415         7.50406         0.29706
C           6.08088         9.49294         2.27278
F           7.44151         9.54618         2.20600
F           5.65111        10.77421         2.10681
F           5.78503         9.16287         3.56071
C           4.64168         5.74141        -3.25046
C           5.30238         4.59899        -3.71873
C           6.25716         4.67102        -4.74104
C           6.54756         5.89202        -5.35968
C           5.84807         7.03044        -4.94732
C           4.91239         6.95628        -3.90876
C           7.57888         5.98585        -6.45816
F           8.25755         4.82386        -6.66867
F           7.03297         6.32433        -7.65827
F           8.52829         6.92841        -6.19933
H           1.09786         1.63619        -0.70201
H           1.26112         4.00236        -1.28315
H           5.54913         3.83438        -0.80819
H           5.38471         1.44337        -0.28414
H           6.33374         6.40791        -1.22601
H           7.34127         7.92679         0.39082
H           3.43163         8.93150         1.90895
H           2.40819         7.41725         0.27513
H           5.10063         3.61605        -3.30084
H           6.77225         3.76195        -5.04763
H           6.03331         7.99139        -5.42795
H           4.39724         7.86908        -3.61255
