%chk=blank.chk
# hf/3-21g

Title Card Required

0  1
C           1.06291         1.69279        -1.61693
C           1.99884         0.61887        -1.00620
C           1.13401        -0.32861        -0.17075
C           2.54269        -0.19349        -2.20549
P           3.38480         1.47646        -0.13269
C           2.73143         2.70444         1.07183
C           1.99743         2.20028         2.16900
C           1.70759         2.96789         3.29677
C           2.23233         4.24008         3.40015
C           2.93290         4.77722         2.32393
C           3.05902         4.09461         1.09571
N           3.47714         4.85574        -0.06464
C           3.59503         6.25737        -0.26576
C           4.27767         6.38114        -1.46997
C           4.34733         5.09104        -2.03024
N           3.74879         4.21584        -1.22883
C           4.93218         4.68923        -3.30745
C           6.08123         5.31696        -3.79706
C           6.66961         4.90104        -4.99225
C           6.10503         3.85324        -5.71957
C           4.95500         3.22237        -5.24881
C           4.37204         3.63197        -4.04489
C           3.11113         7.38074         0.56411
C           3.88601         8.54752         0.68153
C           3.47010         9.61774         1.48127
C           2.28150         9.53011         2.19818
C           1.48047         8.39967         2.06575
C           1.86882         7.35813         1.21492
C           4.55792         0.37348         0.79703
C           5.31597        -0.56138        -0.16764
C           5.64499         1.26164         1.46377
C           3.93658        -0.49012         1.90069
H           0.24289         1.22588        -2.17790
H           1.59451         2.34422        -2.32083
H           0.60483         2.32623        -0.84962
H           0.27547        -0.68615        -0.75339
H           0.71588         0.14270         0.71852
H           1.68013        -1.22519         0.13054
H           1.72263        -0.54479        -2.84467
H           3.07507        -1.09283        -1.88870
H           3.21742         0.39602        -2.83693
H           1.67094         1.16681         2.19701
H           1.13372         2.54047         4.11428
H           2.08990         4.82459         4.30392
H           3.37733         5.75591         2.47452
H           4.60311         7.30129        -1.93057
H           6.55457         6.11855        -3.23212
H           7.57523         5.38357        -5.35281
H           6.56391         3.52297        -6.64772
H           4.50989         2.40618        -5.81150
H           3.48299         3.12843        -3.68383
H           4.83112         8.64084         0.15101
H           4.08111        10.51460         1.54961
H           1.97493        10.34412         2.85010
H           0.55231         8.32318         2.62657
H           1.20251         6.50485         1.10835
H           5.83020        -0.00580        -0.96117
H           4.65892        -1.29607        -0.63487
H           6.08090        -1.13759         0.36885
H           6.31673         1.70751         0.71975
H           6.26862         0.67064         2.14649
H           5.22372         2.07936         2.05747
H           3.13860        -1.13487         1.53544
H           3.54707         0.10489         2.72977
H           4.68874        -1.15749         2.34038
