%chk=blank.chk
# hf/3-21g

Title Card Required

0  1
C           1.11167        -0.05949         0.02530
C           0.48546         1.32871         0.19607
P           0.94862         2.53546        -1.13265
C           0.13414         1.76881        -2.57168
C          -1.24809         1.54278        -2.62851
C          -1.82623         0.92002        -3.73694
C          -1.02876         0.50612        -4.80082
C           0.34760         0.71331        -4.75653
C           0.92543         1.34085        -3.64931
C          -0.10096         3.97250        -0.73280
C          -0.34732         4.34270         0.59934
C          -1.14811         5.44482         0.90943
C          -1.69814         6.21295        -0.11027
C          -1.43251         5.88911        -1.43754
C          -0.63227         4.78448        -1.74573
C           2.64562        -0.09541         0.03532
P           3.39658         0.55871         1.59470
C           2.79481        -0.66290         2.80650
C           3.08083        -2.03219         2.69971
C           2.58358        -2.93960         3.63462
C           1.79053        -2.49104         4.69020
C           1.49478        -1.13494         4.80730
C           1.99294        -0.22558         3.87120
C           5.16036         0.13219         1.43695
C           5.80620         0.05455         0.19458
C           7.16688        -0.25456         0.10821
C           7.90757        -0.47488         1.26547
C           7.29129        -0.37578         2.50893
C           5.93251        -0.06665         2.59295
H           0.76255        -0.51159        -0.91151
H           0.72330        -0.70600         0.82266
H           0.78044         1.73521         1.16764
H          -0.60432         1.21830         0.23626
H          -1.89285         1.85006        -1.80811
H          -2.90024         0.75734        -3.76523
H          -1.47989         0.02074        -5.66212
H           0.97334         0.38496        -5.58245
H           2.00401         1.48563        -3.63539
H           0.08741         3.78826         1.42640
H          -1.33239         5.70281         1.94879
H          -2.32121         7.06977         0.12889
H          -1.84296         6.49724        -2.23933
H          -0.42979         4.56722        -2.79275
H           3.02552         0.48363        -0.81245
H           2.96811        -1.12891        -0.13510
H           3.69720        -2.40591         1.88593
H           2.81739        -3.99614         3.53993
H           1.40468        -3.19828         5.41834
H           0.87437        -0.78340         5.62743
H           1.74556         0.82833         3.98097
H           5.27008         0.24307        -0.73099
H           7.64733        -0.31453        -0.86529
H           8.96555        -0.71231         1.19921
H           7.86526        -0.53258         3.41799
H           5.48096         0.01824         3.57991
