%chk=blank.chk
# hf/3-21g

Title Card Required

0  1
C          -1.38521        -0.38333         0.13660
C          -0.96281         0.33133        -0.97742
C           0.39945         0.57181        -1.17215
C           1.36987         0.10281        -0.26426
C           0.91936        -0.56876         0.87684
C          -0.44628        -0.82417         1.06744
P           3.09055         0.46580        -0.67135
C           3.63465         1.52675         0.68794
C           4.16992         1.06897         1.89078
C           4.63079         1.97591         2.85240
C           4.66440         3.35848         2.60697
C           4.06787         3.82473         1.43553
C           3.57127         2.91347         0.50847
C           5.21812         4.29864         3.64523
C           6.61637         4.97647         3.53016
C           7.83448         4.04754         3.61384
C           8.11039         2.90655         2.63149
C           9.42159         2.18687         2.97091
F          10.07926         2.69180         4.03534
F           9.19953         0.87186         3.24171
F          10.28503         2.20844         1.92374
F           7.11364         1.98984         2.68550
F           8.14350         3.33403         1.34617
F           8.94860         4.84395         3.60090
F           7.79324         3.47109         4.85897
C           6.72655         5.86620         2.32850
F           5.58624         6.56998         2.13403
F           7.73604         6.75586         2.41711
F           6.93284         5.17537         1.19368
C           6.71464         5.93130         4.73292
F           5.71787         5.70500         5.62838
F           7.85543         5.79847         5.44123
F           6.61327         7.23585         4.41465
C           4.12521        -1.02221        -0.58766
C           3.70575        -2.30513        -0.24958
C           4.57919        -3.40026        -0.34117
C           5.87247        -3.27591        -0.87097
C           6.31648        -1.98803        -1.16910
C           5.46541        -0.88566        -1.01637
C           6.79170        -4.46720        -0.98650
C           7.11266        -5.21590        -2.32274
C           5.97549        -6.05377        -2.91642
C           4.62798        -5.46494        -3.33187
C           3.70130        -6.54010        -3.90412
F           4.25601        -7.76660        -3.99744
F           2.58518        -6.67709        -3.13902
F           3.26260        -6.20781        -5.14526
F           4.01288        -4.90951        -2.25906
F           4.77403        -4.45982        -4.23058
F           6.47172        -6.69229        -4.02079
F           5.70069        -7.03745        -2.00094
C           7.69889        -4.31955        -3.37303
F           8.59292        -3.45705        -2.83735
F           8.33422        -5.00157        -4.34689
F           6.77190        -3.56028        -3.98199
C           8.24068        -6.20174        -1.98941
F           8.33928        -6.40481        -0.64937
F           8.07460        -7.43039        -2.52281
F           9.46541        -5.77911        -2.37503
H          -2.44268        -0.58679         0.28368
H          -1.68716         0.69981        -1.69983
H           0.69861         1.14000        -2.05199
H           1.62001        -0.91221         1.63327
H          -0.77979        -1.37127         1.94645
H           4.24815         0.00349         2.10282
H           5.03151         1.57535         3.78450
H           3.97897         4.89037         1.22928
H           3.13296         3.31010        -0.41344
H           5.18235         3.76374         4.60527
H           4.45911         5.09211         3.75264
H           2.68112        -2.49942         0.07430
H           4.20854        -4.37809        -0.02772
H           7.33663        -1.80236        -1.49724
H           5.85288         0.09801        -1.25861
H           6.43316        -5.21250        -0.26598
H           7.74948        -4.12436        -0.56395
