%chk=blank.chk
# hf/3-21g

Title Card Required

0  1
C           2.35181        -1.67975         3.93616
C           0.93559        -1.65158         4.50149
C           0.21455        -0.32081         4.21964
C           0.20049         0.05847         2.71501
C           1.68162         0.17427         2.31406
C           2.46688        -1.12630         2.51871
P          -0.77338        -1.16012         1.72903
C          -2.45636        -1.10427         2.46351
C          -3.24315         0.19857         2.46416
P          -5.04795         0.05375         3.02890
C          -4.93443        -0.40544         4.84696
C          -6.30002        -0.46106         5.56775
C          -7.22178        -1.57129         5.05130
C          -6.56703        -2.94654         5.13282
C          -5.15721        -2.95319         4.56114
C          -4.32817        -1.80252         5.13248
C          -5.50244         1.88471         2.92766
C          -5.58092         2.34828         1.45053
C          -6.86626         1.91004         0.73724
C          -8.10826         2.39284         1.47588
C          -8.08656         1.95883         2.93752
C          -6.78243         2.37393         3.62130
C          -1.03441        -0.67258        -0.01988
C           0.22865        -0.62476        -0.89448
C           0.89371        -1.98664        -1.11256
C          -0.06785        -3.06701        -1.59783
C          -1.40972        -3.07520        -0.86838
C          -2.00359        -1.66687        -0.71080
H           2.72209        -2.71183         3.94926
H           3.01103        -1.10334         4.59569
H           0.97697        -1.81545         5.58620
H           0.35913        -2.48728         4.09296
H           0.72489         0.47740         4.77791
H          -0.79583        -0.35759         4.63900
H          -0.26594         1.04557         2.61333
H           2.15121         0.95186         2.94036
H           1.79672         0.52841         1.29245
H           3.52249        -0.95291         2.28260
H           2.11858        -1.88393         1.81199
H          -2.24435        -1.38719         3.48345
H          -3.05639        -1.91559         2.03951
H          -3.28143         0.57492         1.43734
H          -2.74225         0.96280         3.06731
H          -4.30411         0.35121         5.33032
H          -6.83582         0.47993         5.54585
H          -6.11651        -0.64215         6.63739
H          -7.50998        -1.36341         4.01387
H          -8.14549        -1.57437         5.63624
H          -7.18735        -3.68362         4.61106
H          -6.52551        -3.25499         6.18341
H          -5.19526        -2.90097         3.46720
H          -4.67286        -3.91017         4.80131
H          -3.29827        -1.90453         4.82392
H          -4.26823        -1.93950         6.22140
H          -4.66471         2.40916         3.40308
H          -4.71908         2.02191         0.86374
H          -5.54849         3.44695         1.43636
H          -6.89699         0.81841         0.64404
H          -6.87207         2.31263        -0.28227
H          -9.01028         2.01036         0.98443
H          -8.16046         3.48769         1.42122
H          -8.22685         0.87488         3.00547
H          -8.93473         2.42006         3.45787
H          -6.80631         2.12481         4.67793
H          -6.75960         3.47433         3.61982
H          -1.49078         0.32370        -0.03696
H           0.96028         0.08602        -0.50803
H          -0.05485        -0.23127        -1.88214
H           1.37079        -2.32094        -0.18834
H           1.70227        -1.87824        -1.84675
H           0.40576        -4.04872        -1.48842
H          -0.25399        -2.92641        -2.66788
H          -1.28539        -3.54548         0.11505
H          -2.11689        -3.70826        -1.41530
H          -2.95865        -1.73436        -0.17862
H          -2.25170        -1.28437        -1.70979
