%chk=blank.chk
# hf/3-21g

Title Card Required

0  1
C           1.68626         0.94736        -0.26815
C           0.25308         1.34968         0.05184
C          -0.72336         0.24899        -0.34681
C          -0.44840        -1.09363         0.34947
C           0.99410        -1.49975        -0.04873
C           2.04547        -0.43111         0.28491
P          -0.65203        -1.11803         2.21793
C          -2.46938        -0.89900         2.62189
C          -2.74568        -0.98319         4.14550
C          -2.35685         0.26826         4.95319
C          -2.79646         1.59492         4.33913
C          -2.56571         1.65284         2.83656
C          -3.12324         0.40846         2.14966
C          -0.33642        -2.94049         2.60111
C          -1.09457        -3.86152         1.82850
C          -0.87874        -5.23989         1.88775
C           0.07864        -5.74247         2.74296
C           0.80944        -4.86497         3.54989
C           0.64903        -3.44883         3.51065
C           1.52374        -2.64280         4.43501
C           2.79404        -3.08318         4.86649
C           3.57637        -2.35228         5.77678
C           3.13188        -1.12698         6.25543
C           1.89039        -0.66209         5.85743
C           1.10012        -1.43000         4.99877
H           2.37459         1.69837         0.13549
H           1.82095         0.94685        -1.35653
H           0.00089         2.27270        -0.48102
H           0.16512         1.57452         1.11950
H          -0.63667         0.09548        -1.43261
H          -1.74295         0.59360        -0.21227
H          -1.14264        -1.82428        -0.07882
H           1.01728        -1.67237        -1.13064
H           1.29146        -2.45309         0.40787
H           3.01459        -0.73730        -0.12486
H           2.17681        -0.36217         1.36958
H          -3.00619        -1.72335         2.13732
H          -2.27617        -1.86713         4.59229
H          -3.82737        -1.12595         4.27818
H          -1.27829         0.31682         5.08834
H          -2.77927         0.18763         5.96335
H          -2.25375         2.41754         4.82360
H          -3.85875         1.75845         4.54942
H          -1.49876         1.76561         2.63358
H          -3.05402         2.54820         2.43073
H          -3.09335         0.51559         1.06991
H          -4.19863         0.35737         2.37617
H          -1.85477        -3.51790         1.13355
H          -1.45689        -5.91230         1.25638
H           0.26379        -6.81134         2.79753
H           1.51922        -5.32110         4.23088
H           3.20999        -4.02395         4.51186
H           4.53510        -2.74479         6.10738
H           3.74088        -0.54491         6.94028
H           1.51479         0.29175         6.21948
H           0.11292        -1.06699         4.78066
