%chk=blank.chk
# hf/3-21g

Title Card Required

0  1
C           1.09632         0.18245         0.59484
C           2.64403         0.11810         0.48434
C           3.14121         1.20653        -0.48220
C           3.15701         0.54210         1.88459
P           3.09859        -1.67599         0.12525
C           2.27667        -2.23973        -1.41449
C           1.94187        -1.33523        -2.41455
C           1.18405        -1.97212        -3.40690
C           1.05796        -3.26526        -3.00724
N           1.78730        -3.50813        -1.84248
C           1.76603        -4.81966        -1.22997
C           1.82662        -4.94666         0.16424
C           1.57963        -6.17853         0.78410
C           1.27691        -7.30444         0.02643
C           1.27494        -7.21976        -1.36309
C           1.52639        -5.99571        -2.00177
O           1.65701        -5.93471        -3.36989
C           0.91008        -6.86190        -4.15531
C           4.95021        -1.85386        -0.04168
C           5.65903        -1.53211         1.29847
C           5.27739        -3.33374        -0.34443
C           5.59054        -0.98954        -1.13300
H           0.75017         1.21278         0.74452
H           0.74014        -0.39683         1.45690
H           0.58270        -0.19965        -0.29093
H           2.49195         2.09061        -0.43913
H           3.22149         0.91558        -1.52538
H           4.13699         1.56726        -0.20874
H           2.68649         1.48270         2.20136
H           4.23018         0.74349         1.89101
H           2.94654        -0.20857         2.65275
H           2.14114        -0.28444        -2.44948
H           0.72008        -1.52593        -4.27576
H           0.44731        -4.03853        -3.45117
H           1.98746        -4.09378         0.80650
H           1.59682        -6.24547         1.87092
H           1.05404        -8.25075         0.51144
H           1.08576        -8.12724        -1.92960
H           0.67733        -6.37701        -5.10961
H          -0.04429        -7.14478        -3.69802
H           1.51813        -7.74646        -4.36736
H           5.12945        -1.94499         2.16514
H           5.78378        -0.45714         1.45220
H           6.67694        -1.94267         1.31879
H           4.91612        -3.99599         0.45186
H           6.36209        -3.48714        -0.41862
H           4.84230        -3.66660        -1.29190
H           5.47620         0.07840        -0.93992
H           5.18219        -1.20235        -2.12497
H           6.67400        -1.16394        -1.17739
