%chk=blank.chk
# hf/3-21g

Title Card Required

0  1
C           1.22598        -0.09623        -0.12753
C           2.75039        -0.05218        -0.04508
C           3.18475         0.85985         1.10309
C           4.71230         0.91189         1.12927
O           5.13666         1.35916        -0.18034
C           4.65093         0.52423        -1.24058
O           3.22969         0.49546        -1.26596
C           5.17836        -0.91056        -1.13995
C           4.60941        -1.54877         0.14065
O           3.18200        -1.40752         0.10364
P           5.47612        -0.73809         1.58365
C           4.67016        -1.33371         3.09661
C           5.47157        -1.41980         4.24930
C           4.96462        -1.91004         5.45839
C           3.63755        -2.31557         5.54501
C           2.82741        -2.24435         4.41915
C           3.34494        -1.77312         3.20711
C           4.92463        -3.05075         0.13926
C           5.10595         1.16158        -2.55041
C           5.19511         1.98415         2.11240
H           0.80298         0.90004        -0.29716
H           0.79256        -0.51852         0.78517
H           0.90459        -0.73144        -0.96066
H           2.76366         0.55039         2.06263
H           2.80363         1.87143         0.89997
H           6.27587        -0.93269        -1.15269
H           4.81685        -1.47685        -2.00918
H           6.51810        -1.12243         4.21749
H           5.61174        -1.98113         6.32904
H           3.23968        -2.69687         6.48176
H           1.79042        -2.56701         4.47315
H           2.67107        -1.77472         2.35758
H           4.51161        -3.53066        -0.75578
H           4.46237        -3.55877         0.99339
H           6.00171        -3.25030         0.16339
H           4.71072         2.17984        -2.63684
H           4.73816         0.60229        -3.41791
H           6.19762         1.23085        -2.60384
H           4.79217         2.96720         1.84022
H           6.28647         2.08881         2.08134
H           4.89852         1.77123         3.14537
