%chk=blank.chk
# hf/3-21g

Title Card Required

0  1
C           0.63104         0.42647         0.56472
N           2.08369         0.22138         0.58028
C           2.51993        -1.12082         0.20234
C           2.87725         1.31562         0.19801
C           2.40263         2.62703         0.31706
C           3.10696         3.71895        -0.20007
C           4.38752         3.59248        -0.73953
C           4.92795         2.30756        -0.74887
C           4.17527         1.19190        -0.31053
P           5.09900         5.06713        -1.49250
C           5.58081         6.24516        -0.14209
C           4.41716         6.83189         0.68106
C           4.07599         6.10744         1.98647
C           5.29053         5.68200         2.79753
C           6.34727         4.98923         1.94826
C           6.75184         5.84996         0.75992
C           6.67520         4.67258        -2.38438
C           6.56174         3.60924        -3.49361
C           5.78557         4.07351        -4.72741
C           6.37433         5.35092        -5.30985
C           6.52555         6.44085        -4.25462
C           7.29214         5.94268        -3.02224
H           0.09141        -0.51578         0.70333
H           0.29528         0.86253        -0.38541
H           0.32084         1.07068         1.39328
H           1.80902        -1.87729         0.55509
H           3.48084        -1.37102         0.66413
H           2.59507        -1.22093        -0.88643
H           1.44971         2.83990         0.79142
H           2.61404         4.68831        -0.16651
H           5.92503         2.11870        -1.13213
H           4.64327         0.21628        -0.41666
H           5.93980         7.09981        -0.73110
H           3.51081         6.94731         0.07412
H           4.70717         7.85461         0.96356
H           3.46845         5.22458         1.79314
H           3.44217         6.76010         2.59993
H           4.97073         5.00792         3.60115
H           5.72818         6.56329         3.28043
H           5.98116         4.01596         1.60872
H           7.23012         4.79261         2.56758
H           7.55952         5.36362         0.20638
H           7.19250         6.77635         1.15830
H           7.38445         4.28490        -1.64518
H           6.11816         2.67612        -3.14156
H           7.57736         3.34406        -3.81510
H           4.73151         4.22812        -4.47107
H           5.81117         3.28333        -5.48685
H           5.73868         5.70754        -6.12776
H           7.35657         5.13025        -5.74485
H           5.53435         6.80642        -3.96194
H           7.05406         7.29554        -4.69252
H           7.38484         6.76097        -2.30126
H           8.31979         5.71048        -3.33371
