%chk=blank.chk
# hf/3-21g

Title Card Required

0  1
O           4.24751         1.65780        -3.42007
C           4.47733         2.70670        -2.60403
O           4.82236         3.79843        -3.02252
C           4.14077         2.46858        -1.17015
C           3.54787         3.56926        -0.51954
C           3.17562         3.49504         0.81976
C           3.39524         2.31975         1.52601
C           4.00613         1.22972         0.90094
C           4.39887         1.27524        -0.45484
P           5.30573        -0.14156        -1.17807
C           6.63187        -0.39567         0.04660
C           6.80053        -1.55129         0.81986
C           7.87020        -1.67010         1.71691
C           8.78610        -0.63200         1.86291
C           8.64061         0.52384         1.10520
C           7.57896         0.63666         0.20353
C           4.19191        -1.57968        -1.11101
C           2.82353        -1.50279        -0.80320
C           1.98418        -2.61767        -0.93288
C           2.49360        -3.83408        -1.37897
C           3.84759        -3.94082        -1.67556
C           4.68338        -2.82534        -1.54820
H           3.99626         0.83498        -2.95866
H           3.38128         4.49965        -1.06343
H           2.72463         4.35563         1.30853
H           3.11016         2.25580         2.57380
H           4.18760         0.33702         1.49994
H           6.11111        -2.38699         0.74801
H           7.98758        -2.57936         2.30136
H           9.61291        -0.72504         2.56260
H           9.35336         1.33830         1.20858
H           7.50444         1.55166        -0.38376
H           2.36511        -0.57315        -0.47879
H           0.92466        -2.52750        -0.70491
H           1.83603        -4.68991        -1.50830
H           4.25325        -4.88507        -2.02689
H           5.73267        -2.94260        -1.81690
