%chk=blank.chk
# hf/3-21g

Title Card Required

0  1
C           2.17458         0.05089         2.19337
C           3.00183         0.08348         0.93977
C           3.77460         1.25853         0.74701
C           4.58761         1.43032        -0.36950
C           4.64056         0.43702        -1.32781
C           3.86884        -0.71794        -1.16278
C           3.02785        -0.93124        -0.04013
P           2.19442        -2.53787        -0.10801
C           2.70494        -3.49009         1.33630
C           1.99233        -3.53476         2.54272
C           2.40840        -4.35168         3.59917
C           3.52870        -5.16468         3.45460
C           4.23889        -5.15315         2.25843
C           3.83448        -4.31754         1.21325
C           0.40091        -2.43371        -0.04329
C          -0.34192        -1.24955        -0.06757
C          -1.74408        -1.27969        -0.11327
C          -2.42770        -2.49356        -0.16176
C          -1.71205        -3.68253        -0.15258
C          -0.31613        -3.64938        -0.08979
H           2.57335         0.74798         2.94138
H           2.19421        -0.92473         2.67019
H           1.14564         0.35175         1.98332
H           3.75114         2.05352         1.49073
H           5.17916         2.33736        -0.48109
H           5.27269         0.54936        -2.20087
H           3.94445        -1.47408        -1.94543
H           1.09551        -2.93445         2.67980
H           1.84747        -4.35927         4.53009
H           3.84255        -5.81182         4.26908
H           5.10304        -5.79973         2.13104
H           4.40079        -4.34095         0.28364
H           0.15285        -0.28297        -0.07185
H          -2.30298        -0.34821        -0.12986
H          -3.51293        -2.51119        -0.22323
H          -2.22969        -4.63656        -0.20934
H           0.21587        -4.60061        -0.10239
