%chk=blank.chk
# hf/3-21g

Title Card Required

0  1
C           4.59502        -0.87946        -1.81753
C           4.14828        -0.44698        -0.44423
C           4.88060         0.58294         0.17774
C           4.50213         1.08689         1.41937
C           3.36788         0.59027         2.04476
C           2.65394        -0.45635         1.46057
C           3.05920        -1.03602         0.24368
P           2.27161        -2.59290        -0.33770
C           2.55928        -3.62365         1.18918
C           1.64778        -3.63558         2.26613
C           1.85333        -4.41496         3.40924
C           2.98410        -5.21025         3.50928
C           3.92407        -5.19481         2.48432
C           3.73625        -4.40703         1.32880
C           4.86901        -4.36877         0.33542
C           0.46482        -2.25512        -0.44767
C          -0.43008        -3.29517        -0.10483
C          -1.81893        -3.13350        -0.13665
C          -2.36190        -1.92752        -0.54593
C          -1.51460        -0.91158        -0.97494
C          -0.11052        -1.07499        -0.97971
C           0.68746         0.03508        -1.61334
H           5.14610        -0.07070        -2.31384
H           3.74056        -1.09364        -2.46673
H           5.24605        -1.75499        -1.76092
H           5.76318         0.99612        -0.30709
H           5.08721         1.87073         1.89169
H           3.04608         0.99711         2.99897
H           1.78403        -0.83474         1.99042
H           0.76112        -3.00615         2.25149
H           1.12822        -4.39477         4.21838
H           3.14817        -5.82100         4.39300
H           4.82327        -5.79815         2.59602
H           5.56535        -5.19943         0.49752
H           5.43270        -3.43734         0.45513
H           4.51148        -4.45917        -0.69302
H          -0.05160        -4.26959         0.20072
H          -2.46828        -3.95413         0.15684
H          -3.43930        -1.79066        -0.57048
H          -1.95841         0.01160        -1.34422
H           0.04951         0.66343        -2.24669
H           1.45334        -0.36991        -2.28080
H           1.13500         0.68228        -0.85670
