%chk=blank.chk
# hf/3-21g

Title Card Required

0  1
C           1.00645         2.30875        -2.22619
C           2.54310         2.19834        -2.10037
C           2.89843         0.71416        -2.01302
C           3.04584         2.76198        -3.45540
P           3.20735         3.23566        -0.68182
C           2.45046         2.70757         0.89629
C           0.94247         2.78599         0.90363
C           0.20982         1.58996         1.10305
C          -1.19453         1.57193         1.18856
C          -1.85593         2.80266         1.05356
C          -1.14767         3.99814         0.88597
C           0.24763         3.99276         0.81770
C          -1.99962         0.29415         1.26271
P          -1.47094        -0.72561         2.67946
C          -2.05817         0.10025         4.25089
C          -3.55655         0.42655         4.29569
C          -1.69421        -0.76547         5.48041
C          -1.29251         1.43183         4.44909
C          -2.35596        -2.36904         2.40127
C          -1.77457        -3.01349         1.11462
C          -2.06085        -3.36541         3.53924
C          -3.87342        -2.26692         2.20755
C           5.04156         2.77389        -0.34546
C           5.93746         3.08978        -1.55516
C           5.56017         3.66206         0.81773
C           5.28331         1.30959         0.06399
H           0.64185         1.78603        -3.11595
H           0.67798         3.35164        -2.30796
H           0.48061         1.84441        -1.39641
H           2.25105         0.10952        -2.65864
H           2.79655         0.31969        -0.99724
H           3.91709         0.53062        -2.36664
H           2.55963         2.24599        -4.29366
H           4.11526         2.63094        -3.61266
H           2.82178         3.83087        -3.56224
H           2.80024         3.35643         1.70815
H           2.75208         1.69503         1.16258
H           0.75242         0.64831         1.17082
H          -2.94404         2.84290         1.08100
H          -1.68700         4.93974         0.80666
H           0.77891         4.93396         0.69348
H          -1.81682        -0.23685         0.32099
H          -3.07029         0.50964         1.29412
H          -4.16751        -0.46255         4.46291
H          -3.90876         0.91968         3.38523
H          -3.78489         1.09735         5.13390
H          -2.46179        -1.51298         5.69566
H          -1.61845        -0.16116         6.39252
H          -0.73433        -1.28094         5.35998
H          -1.58831         2.19134         3.72355
H          -0.20663         1.29568         4.39067
H          -1.51120         1.86899         5.43233
H          -0.68281        -3.09886         1.15568
H          -2.03405        -2.44552         0.21531
H          -2.17233        -4.02680         0.96373
H          -0.99008        -3.43869         3.76098
H          -2.40587        -4.37505         3.27647
H          -2.58953        -3.10768         4.45891
H          -4.14709        -1.61191         1.37833
H          -4.38736        -1.91482         3.10684
H          -4.30370        -3.25686         1.99948
H           5.88162         4.14473        -1.84582
H           5.69360         2.47569        -2.42183
H           6.98845         2.87045        -1.32531
H           5.59102         4.72147         0.53891
H           6.58238         3.37563         1.09874
H           4.95690         3.57001         1.72537
H           5.18615         0.61706        -0.77196
H           4.62841         0.96695         0.86647
H           6.30961         1.17299         0.42807
