%chk=blank.chk
# hf/3-21g

Title Card Required

0  1
C           2.72397         0.71367         2.67426
O           3.71434         0.60090         1.65442
C           3.66267         1.54277         0.65546
C           3.02523         2.78705         0.83268
C           2.94725         3.71679        -0.20525
C           3.51817         3.42317        -1.43184
C           4.17620         2.20550        -1.61077
C           4.27626         1.24111        -0.57832
P           5.20928        -0.23808        -1.05694
C           6.55752        -0.36382         0.13543
C           6.50769        -1.09871         1.32418
C           7.61318        -1.15126         2.18352
C           8.79127        -0.47819         1.86340
C           8.86738         0.24737         0.68055
C           7.76080         0.30099        -0.17414
C           4.16029        -1.69912        -0.92350
C           2.77936        -1.65345        -0.69017
C           1.98242        -2.79922        -0.81558
C           2.55094        -4.01463        -1.18624
C           3.92180        -4.09243        -1.40055
C           4.71605        -2.94821        -1.26461
H           2.74293        -0.20239         3.27127
H           1.71809         0.80997         2.24824
H           2.94399         1.54981         3.34715
H           2.58188         3.07091         1.78142
H           2.44355         4.66741        -0.05102
H           3.45998         4.13497        -2.25138
H           4.62397         2.01260        -2.58590
H           5.60245        -1.63210         1.60430
H           7.55323        -1.72378         3.10599
H           9.64577        -0.51957         2.53335
H           9.78341         0.77455         0.41670
H           7.85152         0.86990        -1.09872
H           2.28637        -0.71773        -0.44252
H           0.90974        -2.73124        -0.65363
H           1.92591        -4.89278        -1.32257
H           4.37427        -5.03332        -1.70308
H           5.78099        -3.03543        -1.47602
