%chk=blank.chk
# hf/3-21g

Title Card Required

0  1
C           0.98077        -0.08564        -0.10154
C           2.52703        -0.09750        -0.05313
C           3.00156        -1.35800         0.66397
C           3.76476        -1.28501         1.84085
C           4.21193        -2.47141         2.49200
C           3.86030        -3.71537         1.93604
C           3.12602        -3.79396         0.75892
C           2.69440        -2.62895         0.13713
P           5.23760        -2.42014         4.01095
C           4.24582        -3.42099         5.19442
C           4.67513        -4.61833         5.78983
C           3.91458        -5.26056         6.77636
C           2.69571        -4.72741         7.17940
C           2.23471        -3.55568         6.58823
C           3.00049        -2.91339         5.60723
C           6.73957        -3.40136         3.68648
C           7.09225        -3.90571         2.42736
C           8.22771        -4.70549         2.25509
C           9.05881        -4.98478         3.33459
C           8.77604        -4.43179         4.57827
C           7.63957        -3.63363         4.74543
O           4.11597        -0.07622         2.40811
C           3.83295         1.11331         1.76959
C           3.02380         1.17292         0.62473
C           2.72254         2.43566         0.06521
C           3.26115         3.60316         0.58423
C           4.10762         3.53123         1.68048
C           4.40232         2.29409         2.30050
P           5.49892         2.45103         3.75048
C           4.43186         1.80496         5.07504
C           4.72021         0.67977         5.85333
C           3.86069         0.26574         6.87859
C           2.69818         0.97931         7.15247
C           2.39341         2.10790         6.40106
C           3.25102         2.51407         5.37431
C           6.89866         1.32637         3.52478
C           7.15314         0.60581         2.34926
C           8.25793        -0.24556         2.23881
C           9.16209        -0.35730         3.28834
C           8.97572         0.40262         4.43716
C           7.86051         1.23960         4.54895
C           3.09632        -0.11174        -1.49752
H           0.55209        -0.06629         0.90803
H           0.57715        -0.96708        -0.61242
H           0.58914         0.78591        -0.63840
H           4.18589        -4.64269         2.40405
H           2.89530        -4.76221         0.32302
H           2.11311        -2.72504        -0.77748
H           5.61766        -5.08194         5.51663
H           4.28703        -6.17319         7.23639
H           2.10948        -5.22043         7.94988
H           1.28528        -3.12783         6.89917
H           2.61963        -1.98444         5.18335
H           6.49377        -3.68887         1.54794
H           8.45666        -5.11022         1.27272
H           9.92943        -5.62110         3.20315
H           9.43145        -4.62554         5.42311
H           7.44649        -3.21054         5.73064
H           2.07832         2.51812        -0.80792
H           3.03313         4.56362         0.12919
H           4.53513         4.45884         2.05680
H           5.61316         0.09008         5.67308
H           4.09979        -0.62545         7.45415
H           2.03446         0.65583         7.94908
H           1.49224         2.67763         6.61067
H           2.98584         3.40384         4.80556
H           6.49439         0.67779         1.48959
H           8.40188        -0.82698         1.33207
H          10.00961        -1.03181         3.20666
H           9.69435         0.34520         5.24968
H           7.74879         1.83004         5.45706
H           2.77559        -0.99102        -2.06647
H           4.19417        -0.11099        -1.48682
H           2.77734         0.75937        -2.08069
