%chk=blank.chk
# hf/3-21g

Title Card Required

0  1
C          -1.43138        -0.38833         0.31644
C          -0.89243        -0.23992        -0.95622
C           0.48594        -0.06610        -1.11284
C           1.35340        -0.03285        -0.00524
C           0.78885        -0.15335         1.26851
C          -0.59254        -0.34055         1.42753
P           3.11893         0.19841        -0.34615
C           3.84966         0.96776         1.17468
C           5.36583         1.15892         1.01228
C           6.06870         1.92676         2.10885
C           7.45924         2.05187         2.04498
C           8.12318         2.77360         3.03117
C           7.38656         3.35500         4.05457
C           6.01147         3.18570         4.04541
N           5.33858         2.48794         3.10042
C           3.83603        -1.47729        -0.33949
C           4.98534        -1.68613        -1.12568
C           5.61899        -2.93119        -1.17859
C           5.10940        -3.99848        -0.44875
C           3.96696        -3.81771         0.32778
C           3.33637        -2.56774         0.38366
H          -2.50150        -0.53657         0.44069
H          -1.53836        -0.25813        -1.83015
H           0.87913         0.05094        -2.12135
H           1.40190        -0.11567         2.16336
H          -1.01512        -0.44662         2.42419
H           3.64199         0.37498         2.07121
H           3.36899         1.94486         1.30753
H           5.57307         1.67931         0.06779
H           5.84704         0.17490         0.95428
H           8.01852         1.59363         1.23467
H           9.20313         2.88262         2.99780
H           7.87133         3.92739         4.83651
H           5.39436         3.62462         4.82427
H           5.40538        -0.86995        -1.71090
H           6.50681        -3.06173        -1.79231
H           5.59672        -4.96904        -0.49112
H           3.56377        -4.65618         0.89136
H           2.44620        -2.47322         0.99902
