%chk=blank.chk
# hf/3-21g

Title Card Required

0  1
C           0.88219        -0.35117         0.38179
C           2.42395        -0.17268         0.33650
C           2.69822         1.12272        -0.43690
C           2.86743         0.05363         1.79698
P           3.15954        -1.74927        -0.34640
C           2.56686        -1.97902        -2.07666
C           2.87818        -0.94931        -2.99955
C           2.53821        -1.00428        -4.34856
C           1.84104        -2.09730        -4.82166
C           1.49432        -3.12133        -3.94057
C           1.86256        -3.12869        -2.56350
C           1.50918        -4.37049        -1.78762
C           1.52772        -5.64372        -2.41117
C           1.18204        -6.82264        -1.73507
C           0.84086        -6.77218        -0.39236
C           0.80603        -5.53884         0.25370
C           1.10296        -4.36221        -0.44538
C           5.02008        -1.77233        -0.37754
C           5.58739        -1.81225         1.05889
C           5.47118        -3.09792        -1.04998
C           5.71131        -0.61916        -1.11104
H           0.39339         0.57437         0.72095
H           0.58370        -1.14217         1.07749
H           0.46234        -0.58734        -0.60125
H           2.38428         1.99738         0.14749
H           2.13431         1.17250        -1.37316
H           3.75147         1.27498        -0.66494
H           2.24637         0.81766         2.28357
H           3.89376         0.42578         1.85722
H           2.78893        -0.85551         2.40564
H           3.41484        -0.06366        -2.68117
H           2.82073        -0.19772        -5.01699
H           1.56290        -2.16006        -5.86891
H           0.92208        -3.94661        -4.36036
H           1.81598        -5.74486        -3.45622
H           1.18430        -7.77143        -2.26402
H           0.60068        -7.68418         0.14695
H           0.54264        -5.49123         1.30714
H           0.99620        -3.42880         0.09416
H           5.13444        -2.60536         1.66180
H           5.45083        -0.86717         1.58717
H           6.67112        -1.98984         1.04535
H           5.12670        -3.97232        -0.48372
H           6.56443        -3.15618        -1.10006
H           5.09944        -3.19167        -2.07365
H           5.53562         0.34199        -0.62400
H           5.41909        -0.54481        -2.15932
H           6.79907        -0.75822        -1.11191
