%chk=blank.chk
# hf/3-21g

Title Card Required

0  1
C          12.26877         0.00421        -5.20476
C          11.40073        -0.03331        -3.98746
C          11.20771        -1.20318        -3.27826
C          10.38213        -1.26357        -2.12687
C           9.65054        -0.13161        -1.69092
C          10.09019         1.10327        -2.26781
C          10.83832         1.11835        -3.47084
C          10.01876         2.46516        -1.62091
N           8.45808        -0.15183        -0.80784
C           7.97422         0.97619        -0.14372
C           6.65478         0.78213         0.13669
N           6.33612        -0.50516        -0.10469
C           7.44705        -1.11600        -0.49847
P           7.28675        -2.93870        -0.49090
C           7.81202        -3.44965         1.25835
C           9.31965        -3.35613         1.54539
C           9.78512        -1.92188         1.80192
C           9.02172        -1.20818         2.89006
C           7.51671        -1.46194         2.88377
C           7.09794        -2.87536         2.48553
C           5.37431        -3.15667        -0.39919
C           4.65052        -2.57870        -1.63597
C           4.79944        -3.44352        -2.88510
C           4.26507        -4.84876        -2.65101
C           4.89477        -5.49768        -1.42184
C           4.87322        -4.60111        -0.18076
C          10.71541        -2.45057        -1.27425
H          12.97252        -0.83427        -5.21293
H          12.86586         0.92242        -5.22802
H          11.65350        -0.04488        -6.10878
H          11.78414        -2.08179        -3.57076
H          11.05035         2.06719        -3.96269
H          10.37426         2.38736        -0.58610
H           9.02900         2.91706        -1.69323
H          10.72784         3.16508        -2.08167
H           8.57158         1.83433         0.08445
H           5.95063         1.47608         0.55830
H           7.58499        -4.52491         1.24604
H           9.90720        -3.84816         0.76840
H           9.54288        -3.93420         2.45409
H           9.69340        -1.33902         0.89516
H          10.86292        -1.91837         2.02591
H           9.20277        -0.12841         2.79625
H           9.43756        -1.50612         3.85700
H           7.02763        -0.74723         2.22830
H           7.12475        -1.23404         3.88160
H           6.01082        -2.94175         2.40225
H           7.35944        -3.52098         3.33850
H           5.04829        -2.57722         0.47237
H           4.97070        -1.56019        -1.86846
H           3.57813        -2.50485        -1.40026
H           5.85113        -3.49190        -3.18727
H           4.25402        -2.98094        -3.71563
H           4.45924        -5.46790        -3.53548
H           3.17447        -4.80946        -2.53268
H           5.92846        -5.77695        -1.64960
H           4.35701        -6.43046        -1.20653
H           5.40196        -5.09817         0.64012
H           3.82122        -4.53857         0.14553
H          11.47424        -3.10285        -1.72148
H           9.85603        -3.07633        -1.12940
H          11.18415        -2.10259        -0.34779
