%chk=blank.chk
# hf/3-21g

Title Card Required

0  1
C           0.96525         0.05751         0.39937
C           2.44733         0.07355         0.14943
C           2.96622         0.55256        -1.05285
C           4.34692         0.51752        -1.29605
C           5.25050         0.00457        -0.34716
C           4.71988        -0.44127         0.87026
C           3.33428        -0.42005         1.10997
P           7.02190        -0.02377        -0.79758
C           7.79248         0.89851         0.57865
C           8.18094         0.33319         1.80077
C           8.79569         1.11314         2.79417
C           9.03923         2.47494         2.58995
C           8.65633         3.04665         1.37516
C           8.03998         2.26932         0.38715
C           9.69819         3.31993         3.64211
C           7.65556        -1.73981        -0.62398
C           6.76383        -2.81156        -0.41225
C           7.20412        -4.13539        -0.27788
C           8.55395        -4.43754        -0.35472
C           9.46293        -3.41594        -0.61468
C           9.02411        -2.08523        -0.78135
C          10.06977        -1.11763        -1.20932
O          11.24146        -1.45150        -1.36556
H           0.41642         0.58823        -0.38599
H           0.72878         0.54431         1.35192
H           0.59824        -0.97319         0.42377
H           2.30665         0.95910        -1.81673
H           4.70773         0.90357        -2.24806
H           5.36892        -0.82980         1.64949
H           2.95308        -0.79671         2.05675
H           8.01386        -0.71972         2.00866
H           9.08595         0.64161         3.73211
H           8.83480         4.10315         1.18611
H           7.75710         2.75466        -0.54619
H           9.92001         2.74146         4.54498
H           9.04091         4.14761         3.92980
H          10.64154         3.72833         3.26504
H           5.68979        -2.64924        -0.36946
H           6.48059        -4.93354        -0.12406
H           8.89680        -5.46400        -0.25111
H          10.51850        -3.66528        -0.71753
H           9.76678        -0.08421        -1.42451
