%chk=blank.chk
# hf/3-21g

Title Card Required

0  1
C           3.17989         0.99181        -1.06183
C           2.65413        -0.10151        -0.14430
C           1.65750         0.16818         0.75494
C           1.01967        -0.86479         1.61260
C           1.47473        -1.10475         2.91227
C           0.80148        -2.00964         3.73677
C          -0.31655        -2.69538         3.26270
C          -0.78434        -2.45427         1.97336
C          -0.13330        -1.52323         1.16227
C           1.17777         1.57927         0.93055
C           0.17165         2.12975         0.12960
C          -0.26541         3.44187         0.34736
C           0.28366         4.20580         1.38537
C           1.27907         3.66320         2.19707
C           1.71871         2.35387         1.97451
P           3.47047        -1.81349        -0.21272
C           2.89893        -2.54603        -1.82154
C           3.53772        -3.90014        -2.20295
C           3.13690        -5.07507        -1.30671
C           1.62813        -5.26720        -1.28057
C           0.92338        -3.96537        -0.92574
C           1.36708        -2.79200        -1.81775
C           5.28850        -1.38347        -0.31036
C           5.78456        -1.08409         1.12347
C           5.92020        -2.35868         1.96113
C           6.86384        -3.37383         1.32514
C           6.63479        -3.59771        -0.16748
C           6.30928        -2.32864        -0.95064
H           3.19973         1.97113        -0.56835
H           2.54407         1.06909        -1.94876
H           4.19595         0.85238        -1.41883
H           2.34064        -0.57272         3.29393
H           1.14804        -2.17453         4.75274
H          -0.83064        -3.40784         3.90151
H          -1.65127        -2.98885         1.59501
H          -0.52557        -1.32258         0.16883
H          -0.27224         1.54969        -0.67413
H          -1.04472         3.87350        -0.27475
H          -0.06210         5.22350         1.55679
H           1.69627         4.24579         3.01253
H           2.48221         1.93922         2.62327
H           3.13001        -1.82246        -2.61169
H           4.62085        -3.85491        -2.24939
H           3.22533        -4.14516        -3.22841
H           3.50593        -4.92016        -0.28635
H           3.61207        -5.99322        -1.67445
H           1.36423        -6.04453        -0.55304
H           1.28355        -5.61880        -2.25920
H           1.13298        -3.74701         0.12533
H          -0.16040        -4.10658        -1.00984
H           0.82216        -1.88571        -1.54306
H           1.05030        -3.02208        -2.84455
H           5.39626        -0.46937        -0.88836
H           5.12773        -0.37225         1.63493
H           6.77029        -0.59815         1.06628
H           4.93788        -2.82175         2.11105
H           6.28890        -2.09957         2.96020
H           6.76797        -4.33381         1.84812
H           7.89603        -3.04024         1.48374
H           5.84243        -4.33681        -0.30662
H           7.54334        -4.04726        -0.59146
H           6.05601        -2.55563        -1.98870
H           7.25444        -1.76887        -1.03754
