%chk=blank.chk
# hf/3-21g

Title Card Required

0  1
C          -1.47471        -0.17391         0.37173
C          -0.95925         0.51472        -0.71988
C           0.42424         0.64432        -0.87005
C           1.32074         0.07521         0.05582
C           0.78053        -0.58414         1.16730
C          -0.60626        -0.70840         1.32185
P           3.09297         0.24054        -0.30557
C           3.70772         1.10266         1.18638
C           4.06866         0.46943         2.38699
C           4.64022         1.19136         3.43873
C           4.83297         2.56660         3.32220
C           4.44427         3.21969         2.15618
C           3.88826         2.49333         1.09963
C           3.84496        -1.43177        -0.26688
C           5.20469        -1.50614         0.13225
C           5.90320        -2.71457         0.20965
C           5.27108        -3.90081        -0.12739
C           3.95829        -3.86293        -0.58647
C           3.25807        -2.64156        -0.69314
C           1.94995        -2.72144        -1.38610
O           1.34336        -3.78098        -1.51160
H          -2.54983        -0.29206         0.48240
H          -1.62923         0.94560        -1.45920
H           0.79601         1.18867        -1.73660
H           1.42544        -1.01371         1.93071
H          -1.01323        -1.23283         2.18346
H           3.93932        -0.60273         2.51531
H           4.95162         0.67839         4.34634
H           5.28305         3.12643         4.13653
H           4.58197         4.29346         2.06306
H           3.60760         3.03152         0.19540
H           5.75750        -0.60267         0.38333
H           6.94319        -2.72035         0.52596
H           5.80604        -4.84559        -0.07149
H           3.48770        -4.79383        -0.90404
H           1.56014        -1.80244        -1.84322
