%chk=blank.chk
# hf/3-21g

Title Card Required

0  1
C           0.88214         0.12227         0.05925
C           2.42788         0.00086         0.00234
C           2.88109        -0.82506         1.20910
C           2.73455        -0.82148        -1.27076
P           3.13856         1.71692        -0.13566
C           2.49585         2.70419         1.24748
C           2.74908         2.45432         2.59350
C           2.24829         3.28545         3.61264
C           1.45138         4.40941         3.34963
C           1.18046         4.63695         1.99083
C           1.69442         3.81694         0.96474
N           0.89162         5.19379         4.35873
C           0.70719         6.63107         4.14477
C           1.07792         4.83981         5.76477
C           4.99725         1.77787        -0.03627
C           5.63751         1.04924        -1.23660
C           5.43076         3.26355        -0.16156
C           5.63077         1.22075         1.24265
H           0.41164        -0.86849         0.10353
H           0.48226         0.62469        -0.83039
H           0.53964         0.67358         0.94132
H           2.28109        -1.73896         1.30300
H           2.78062        -0.29344         2.15545
H           3.91583        -1.16054         1.10803
H           2.12692        -1.73511        -1.30137
H           3.77229        -1.15956        -1.30896
H           2.52554        -0.26118        -2.18918
H           3.34658         1.60576         2.90565
H           2.52303         3.02255         4.62910
H           0.52031         5.44488         1.68815
H           1.44128         4.06480        -0.06544
H           0.55397         6.92616         3.10443
H           1.57112         7.18701         4.52547
H          -0.17822         6.97011         4.69719
H           1.03771         3.76071         5.94961
H           0.26811         5.27166         6.36801
H           2.02646         5.23624         6.14791
H           5.28741         1.44616        -2.19707
H           5.44411        -0.02395        -1.22049
H           6.72966         1.15724        -1.22099
H           5.14532         3.68914        -1.13179
H           6.52021         3.36239        -0.07588
H           4.99243         3.89375         0.61985
H           5.45468         0.15229         1.36558
H           5.29273         1.73609         2.14377
H           6.71865         1.34481         1.21952
