%chk=blank.chk
# hf/3-21g

Title Card Required

0  1
C           0.36444        -0.26609        -3.78238
C           1.81572        -0.66830        -4.08131
O           1.84925        -2.03806        -4.47029
C           2.78180        -2.11577        -5.53828
C           2.85088        -0.74764        -6.14826
O           2.18890         0.11948        -5.24382
C           2.75810        -0.28420        -2.91199
C           3.14502         1.09344        -2.94033
C           4.00511         1.66320        -2.01221
C           4.48701         0.87556        -0.99360
C           4.11043        -0.46279        -0.91301
C           3.25309        -1.09838        -1.84438
P           2.94805        -2.89370        -1.55511
C           4.59964        -3.79009        -1.77910
C           5.77782        -3.29833        -0.93161
C           4.45887        -5.31127        -1.55339
C           5.02197        -3.63854        -3.25613
C           2.29434        -3.15902         0.20096
C           0.88792        -2.51172         0.28902
C           2.10733        -4.67007         0.48412
C           3.11334        -2.59192         1.36858
H          -0.18070        -0.07731        -4.71819
H           0.30077         0.66564        -3.20805
H          -0.17867        -1.04768        -3.24437
H           2.49009        -2.89042        -6.25236
H           3.75887        -2.37915        -5.14291
H           2.35472        -0.70185        -7.12128
H           3.88700        -0.41800        -6.28305
H           2.76853         1.75008        -3.72700
H           4.29646         2.70214        -2.09967
H           5.17009         1.29129        -0.25806
H           4.54635        -1.02040        -0.08939
H           5.62037        -3.44954         0.13609
H           6.02095        -2.24930        -1.11279
H           6.68748        -3.85907        -1.17967
H           4.45573        -5.56949        -0.49322
H           5.31727        -5.85236        -1.97249
H           3.55916        -5.72466        -2.02189
H           5.20704        -2.59197        -3.51877
H           4.26305        -4.05527        -3.92764
H           5.95170        -4.18309        -3.46320
H           0.26500        -2.73860        -0.58247
H           0.95313        -1.42175         0.38356
H           0.34516        -2.86872         1.17514
H           1.74789        -5.22810        -0.38610
H           1.38694        -4.84034         1.29392
H           3.03660        -5.12843         0.83819
H           3.10319        -1.49925         1.39799
H           4.14891        -2.92843         1.36745
H           2.69230        -2.91534         2.33003
