%chk=blank.chk
# hf/3-21g

Title Card Required

0  1
C          -1.43972        -0.11616         0.10644
C          -0.86016         0.50470        -1.00114
C           0.53091         0.56156        -1.11866
C           1.36110         0.00419        -0.13632
C           0.77294        -0.62607         0.97459
C          -0.62612        -0.68255         1.09313
As          3.30301         0.18571        -0.42779
C           3.86683         1.15555         1.18683
C           3.64627         0.68735         2.49114
C           4.07508         1.43993         3.59211
C           4.72308         2.66327         3.39800
C           4.94692         3.13401         2.10325
C           4.52149         2.38272         1.00274
C           3.98056        -1.64405        -0.15503
C           3.56726        -2.64145        -1.05047
C           4.06865        -3.94383        -0.94743
C           4.99126        -4.26128         0.05158
C           5.41281        -3.27604         0.94840
C           4.91283        -1.97028         0.84694
H          -2.51875        -0.15756         0.19709
H          -1.48791         0.94245        -1.76673
H           0.96633         1.05211        -1.98108
H           1.37241        -1.07677         1.74644
H          -1.08389        -1.16194         1.94846
H           3.15939        -0.25626         2.66692
H           3.90667         1.07476         4.59745
H           5.05343         3.24390         4.25046
H           5.44937         4.08098         1.95144
H           4.70095         2.75853         0.00439
H           2.86540        -2.40421        -1.83879
H           3.74983        -4.70488        -1.64858
H           5.38537        -5.26785         0.12473
H           6.13723        -3.52443         1.71433
H           5.27486        -1.22418         1.53716
