%chk=blank.chk
# hf/3-21g

Title Card Required

0  1
B           1.73976         2.14912         2.33429
F           1.38420         0.95556         1.64191
F           1.55049         1.92312         3.75511
F           0.89266         3.23879         1.87888
F           3.13141         2.43561         2.04356
C           0.93527         1.04527        -1.60991
C          -0.46462         1.25957        -1.00496
C          -1.33436         0.02981        -1.32283
C          -0.80618        -1.26555        -0.60969
C           0.57132        -1.45817        -1.33945
C           1.56743        -0.28521        -1.16927
P          -0.92223        -1.39456         1.43549
H          -0.41906        -0.22471         2.09026
C          -2.62123        -1.44761         2.42110
C          -3.47383        -0.16385         2.38381
C          -4.05413         0.03055         1.00482
C          -4.82974        -1.20248         0.48827
C          -4.06253        -2.51983         0.67020
C          -3.56966        -2.62501         2.10329
C          -0.02010        -2.78547         2.48383
C          -0.33580        -4.25046         2.11747
C           0.15158        -4.54283         0.71250
C           1.67557        -4.35079         0.65497
C           2.14249        -2.98948         1.23002
C           1.52640        -2.67053         2.56636
H           1.60815         1.89896        -1.36833
H           0.82116         1.01389        -2.71496
H          -0.90039         2.16390        -1.48304
H          -0.44017         1.43270         0.08658
H          -1.30071        -0.11665        -2.42394
H          -2.39063         0.25637        -1.26514
H          -1.39417        -2.10724        -0.98223
H           0.37750        -1.52484        -2.43316
H           1.01566        -2.44561        -1.16305
H           2.47893        -0.46172        -1.77612
H           1.90608        -0.20961        -0.13509
H          -2.33434        -1.54174         3.49191
H          -2.86403         0.71721         2.68182
H          -4.31853        -0.24767         3.10331
H          -3.17207         0.21284         0.45512
H          -4.68259         0.94218         0.94139
H          -5.08460        -1.07717        -0.58610
H          -5.76829        -1.27554         1.07208
H          -3.20055        -2.58472        -0.00734
H          -4.72541        -3.37780         0.43046
H          -3.13052        -3.59901         2.28767
H          -4.44680        -2.59484         2.79049
H          -0.34762        -2.63106         3.53211
H          -1.38515        -4.51369         2.20361
H           0.17487        -4.93819         2.83332
H          -0.38691        -3.88074         0.01532
H          -0.10877        -5.58928         0.43019
H           2.01558        -4.46745        -0.39466
H           2.13544        -5.15152         1.26550
H           1.84850        -2.15705         0.63429
H           3.25439        -2.95237         1.27168
H           1.82282        -1.65658         2.91389
H           1.90564        -3.40268         3.30731
