%chk=blank.chk
# hf/3-21g

Title Card Required

0  1
C           6.67202        -1.33217         1.95147
C           8.03340        -1.51032         1.24974
O           7.97861        -2.50087         0.21452
C           7.03087        -2.09003        -0.78038
C           5.60898        -1.97541        -0.20277
N           5.58634        -1.09501         0.96871
C           4.39105        -0.50187         1.40597
C           4.55851         0.75907         2.05197
C           3.49645         1.57668         2.42940
C           2.21097         1.15189         2.18298
C           2.00118        -0.10572         1.61516
C           3.04529        -0.96911         1.20673
P           2.51997        -2.66139         0.60923
C           2.13125        -3.64829         2.16962
C           1.09434        -2.97235         3.09261
C           0.85404        -3.79238         4.37231
C           2.16902        -3.92153         5.15000
C           3.21954        -4.63778         4.28713
C           3.45598        -3.82821         2.99150
C           2.70281        -6.03999         3.93845
C           1.40079        -5.91391         3.14261
C           0.34323        -5.19190         3.99611
C           1.64582        -5.09259         1.86098
C           1.08044        -2.55280        -0.63800
C           1.62342        -1.78280        -1.89063
C           0.59846        -1.75895        -3.04526
C          -0.69579        -1.07737        -2.57285
C          -1.28023        -1.84946        -1.37979
C          -0.24303        -1.86245        -0.22549
C          -1.60349        -3.27710        -1.83456
C          -0.31436        -3.96562        -2.30113
C           0.28813        -3.19626        -3.47792
C           0.68709        -3.98303        -1.13227
H           6.78997        -0.50943         2.66546
H           6.44024        -2.23544         2.52630
H           8.79099        -1.82866         1.97508
H           8.38364        -0.56480         0.81479
H           7.04096        -2.84342        -1.57568
H           7.36401        -1.14185        -1.21871
H           5.28716        -2.97895         0.08604
H           4.96022        -1.57648        -0.99134
H           5.55796         1.15314         2.22549
H           3.68225         2.53833         2.89809
H           1.36322         1.77593         2.45121
H           0.96965        -0.41946         1.55938
H           0.14308        -2.83220         2.57275
H           1.43699        -1.97819         3.40287
H           0.11372        -3.28256         5.00546
H           2.00078        -4.48205         6.07824
H           2.53506        -2.92952         5.43952
H           4.15799        -4.72650         4.84642
H           4.21644        -4.34229         2.38624
H           3.88252        -2.85611         3.26607
H           2.53124        -6.62057         4.85539
H           3.45066        -6.58786         3.35296
H           1.03503        -6.91222         2.87535
H           0.13298        -5.77249         4.90280
H          -0.59843        -5.11459         3.43871
H           0.68881        -5.07636         1.34680
H           2.36156        -5.62094         1.21712
H           2.54864        -2.24816        -2.25691
H           1.87651        -0.74886        -1.62158
H           1.01273        -1.20418        -3.89449
H          -1.42514        -1.04656        -3.39290
H          -0.49587        -0.03745        -2.28886
H          -2.19963        -1.35682        -1.04067
H          -0.68862        -2.35166         0.64537
H          -0.08616        -0.81331         0.02530
H          -2.33657        -3.25602        -2.65226
H          -2.06095        -3.83902        -1.01146
H          -0.54239        -4.99309        -2.60660
H          -0.41479        -3.19459        -4.32190
H           1.20137        -3.69442        -3.82551
H           1.57152        -4.56589        -1.41263
H           0.17926        -4.52990        -0.33971
