%chk=blank.chk
# hf/3-21g

Title Card Required

0  1
C           1.58408        -2.22662         5.46929
C           0.06311        -2.35217         5.49212
C          -0.64865        -1.01104         5.26680
C          -0.17457        -0.28879         3.97855
C           1.33474        -0.06623         4.14956
C           2.11833        -1.36600         4.32711
P          -0.66797        -1.26578         2.47975
C          -2.51350        -1.23882         2.56783
C          -3.13441         0.15301         2.51961
C          -4.65846         0.07847         2.45856
P          -5.40723         1.72552         2.69379
C          -4.95834         2.67450         1.19249
C          -5.23901         2.10907        -0.20367
C          -6.61180         2.45642        -0.78027
C          -7.03710         3.90220        -0.57962
C          -6.71701         4.47499         0.79557
C          -5.29562         4.16481         1.24322
C          -7.19354         1.49574         2.98904
C          -8.00752         0.52278         2.14317
C          -7.84853        -0.95574         2.48452
C          -7.93878        -1.26606         3.97263
C          -7.24446        -0.26134         4.88623
C          -7.48092         1.19265         4.47910
C          -0.33194        -0.33432         0.91391
C           1.14283        -0.10579         0.56581
C           1.91559        -1.38990         0.27300
C           1.23788        -2.27915        -0.76696
C          -0.26934        -2.42570        -0.57526
C          -0.95649        -1.08288        -0.29049
H           2.03024        -3.22699         5.40545
H           1.91647        -1.79610         6.42021
H          -0.25015        -2.76987         6.45567
H          -0.25279        -3.08399         4.73441
H          -0.44277        -0.36319         6.13059
H          -1.73251        -1.16469         5.27206
H          -0.65403         0.69456         3.93311
H           1.49576         0.55083         5.04621
H           1.75325         0.51998         3.33162
H           3.17281        -1.13342         4.51268
H           2.09563        -1.94610         3.40058
H          -2.83359        -1.75271         3.48057
H          -2.90689        -1.84695         1.74714
H          -2.78203         0.70268         1.64371
H          -2.82350         0.72616         3.40094
H          -4.98524        -0.59294         3.24680
H          -4.97016        -0.37095         1.51326
H          -3.85824         2.65527         1.26862
H          -5.07078         1.02773        -0.25541
H          -4.49399         2.54776        -0.88698
H          -7.36733         1.80403        -0.35341
H          -6.60917         2.22700        -1.85375
H          -8.11707         3.97992        -0.75539
H          -6.55257         4.52105        -1.34259
H          -7.43566         4.10338         1.52861
H          -6.85357         5.56261         0.76711
H          -5.11614         4.58264         2.23911
H          -4.60962         4.70262         0.56806
H          -7.62448         2.48800         2.82207
H          -7.81551         0.64066         1.08132
H          -9.06998         0.77453         2.28085
H          -6.90458        -1.32911         2.08278
H          -8.62700        -1.52419         1.95853
H          -7.52324        -2.26619         4.15192
H          -8.99594        -1.31794         4.25478
H          -6.17108        -0.46774         4.93071
H          -7.60457        -0.41121         5.91003
H          -6.90347         1.85339         5.13873
H          -8.53691         1.42334         4.67806
H          -0.79611         0.65405         0.98871
H           1.65526         0.47215         1.33509
H           1.18672         0.52537        -0.33415
H           2.05606        -1.95757         1.19687
H           2.92133        -1.13003        -0.07944
H           1.70215        -3.27286        -0.74243
H           1.42976        -1.86918        -1.76343
H          -0.47535        -3.13663         0.23759
H          -0.70528        -2.86984        -1.47814
H          -2.03143        -1.24754        -0.15704
H          -0.86994        -0.45151        -1.18495
