%chk=blank.chk
# hf/3-21g

Title Card Required

0  1
C           0.82349        -6.66245        -0.89689
N           1.56531        -5.58647        -0.24102
C           2.36742        -5.98916         0.91691
C           1.69284        -4.30742        -0.80619
C           1.39162        -4.12085        -2.17383
C           1.65794        -2.92931        -2.84458
C           2.35595        -1.93789        -2.19084
C           2.57011        -2.05093        -0.82083
C           2.01195        -3.10873        -0.06730
C           1.14199        -2.69367         1.15787
C           0.05189        -3.58686         1.39612
C          -1.20033        -3.17616         1.82791
C          -1.36358        -1.84625         2.11116
C          -0.26287        -0.97974         2.13421
C           1.04254        -1.35612         1.73599
P           2.42529        -0.13213         1.89366
C           3.63246        -0.85378         3.06938
C           4.29244        -2.04904         2.74268
C           5.34664        -2.54429         3.52306
C           5.78045        -1.84221         4.64319
C           5.13775        -0.66754         5.00206
C           4.05909        -0.19675         4.24164
C           2.23154         1.62132         2.41593
C           1.04787         2.34147         2.60778
C           1.05055         3.69472         3.05447
C           2.24140         4.36792         3.30438
C           3.43044         3.71762         3.05126
C           3.42407         2.39373         2.56379
H           0.33382        -7.28654        -0.13956
H           1.49092        -7.30216        -1.48405
H           0.01092        -6.30168        -1.53457
H           2.31307        -7.07677         1.06029
H           1.99136        -5.54690         1.84334
H           3.42580        -5.74006         0.79697
H           0.92094        -4.90322        -2.75836
H           1.35454        -2.80137        -3.87828
H           2.65300        -1.03205        -2.71163
H           3.02979        -1.19485        -0.35258
H           0.06266        -4.61977         1.08097
H          -2.02031        -3.88368         1.81744
H          -2.36895        -1.48507         2.31574
H          -0.48485         0.03237         2.43097
H           4.02531        -2.60459         1.84927
H           5.84385        -3.46565         3.23517
H           6.62192        -2.20689         5.22901
H           5.47755        -0.09860         5.86462
H           3.59146         0.72467         4.57320
H           0.07470         1.90988         2.41549
H           0.10875         4.21734         3.19707
H           2.23533         5.39647         3.66948
H           4.38345         4.21368         3.22176
H           4.39312         1.92528         2.38762
