%chk=blank.chk
# hf/3-21g

Title Card Required

0  1
C          -1.45851        -0.24846         0.21723
C          -0.90577         0.39769        -0.88338
C           0.48075         0.53809        -0.98432
C           1.34069         0.03892         0.01026
C           0.76087        -0.55483         1.14021
C          -0.62717        -0.71662         1.23257
P           3.12623         0.16563        -0.29290
C           3.73257         1.05594         1.17401
C           4.15046         0.44052         2.35995
C           4.66205         1.19023         3.42490
C           4.76355         2.57565         3.32088
C           4.34767         3.21119         2.15469
C           3.83619         2.45728         1.09335
C           3.81420        -1.51473        -0.13799
C           3.04409        -2.67938        -0.00668
C           3.64073        -3.94398         0.05878
C           5.02161        -4.07339        -0.04072
C           5.80769        -2.93697        -0.20030
C           5.20965        -1.67296        -0.24528
H          -2.53453        -0.38644         0.28359
H          -1.54811         0.78114        -1.67156
H           0.88706         1.03445        -1.86403
H           1.38309        -0.93772         1.94568
H          -1.05794        -1.22131         2.09391
H           4.08893        -0.64043         2.47798
H           4.98942         0.69008         4.33285
H           5.17107         3.15672         4.14174
H           4.42726         4.29063         2.06423
H           3.52705         2.98034         0.19040
H           1.95969        -2.63845         0.03303
H           3.01826        -4.82832         0.17108
H           5.48176        -5.05772        -0.01012
H           6.88550        -3.03072        -0.30108
H           5.85224        -0.80409        -0.38114
