%chk=blank.chk
# hf/3-21g

Title Card Required

0  1
C          -1.53455         0.17361         0.13441
C          -0.82194         1.18934        -0.49089
C           0.57535         1.12794        -0.55212
C           1.29888         0.05141         0.00274
C           0.55048        -0.95882         0.61670
C          -0.84725        -0.89537         0.69624
P           3.10455         0.08656        -0.18486
C           3.78883         0.96908         1.24722
C           5.10755         0.73968         1.67858
C           5.66483         1.45908         2.74107
C           4.92646         2.45354         3.37297
C           3.63328         2.72780         2.94114
C           3.07279         1.99336         1.88999
N           3.66427        -1.50104        -0.08515
C           3.81972        -2.19495         1.18784
C           4.86821        -3.10987         1.36492
C           5.02149        -3.79467         2.57456
C           4.12852        -3.55460         3.60380
C           3.14427        -2.61261         3.38725
N           2.99839        -1.92798         2.23370
C           3.93135        -2.24325        -1.31594
C           4.18396        -1.58619        -2.53410
C           4.44419        -2.31141        -3.70176
C           4.46020        -3.69386        -3.65345
C           4.21515        -4.29023        -2.43550
N           3.95527        -3.60484        -1.29767
H          -2.61943         0.20945         0.17816
H          -1.34852         2.02962        -0.93478
H           1.10031         1.94418        -1.04660
H           1.02872        -1.82767         1.05244
H          -1.39184        -1.69331         1.19504
H           5.72344        -0.01346         1.19281
H           6.67757         1.24136         3.06847
H           5.35853         3.01703         4.19492
H           3.05467         3.51466         3.41797
H           2.06338         2.24865         1.57911
H           5.58457        -3.29916         0.57139
H           5.82836        -4.51040         2.69968
H           4.19645        -4.08064         4.54777
H           2.41327        -2.37571         4.15415
H           4.20346        -0.50426        -2.60842
H           4.63410        -1.79129        -4.63653
H           4.65768        -4.28921        -4.53715
H           4.21922        -5.37187        -2.33018
