%chk=blank.chk
# hf/3-21g

Title Card Required

0  1
B          -0.73750        -0.02517        -1.89417
F          -1.83691        -0.48479        -2.70780
F          -1.20463         0.11740        -0.51348
F          -0.26351         1.26169        -2.36022
F           0.34749        -0.99216        -1.96932
C           2.45761        -0.84254         2.83675
C           1.30918        -1.66547         2.27754
C           1.26389        -1.27502         0.80770
C           1.77639         0.19528         0.71718
C           2.29545         0.50489         2.13596
P           2.88755         0.53178        -0.83171
C           3.43825         2.37015        -0.74798
C           4.38577         2.78721        -1.89380
C           4.40002         4.30131        -1.76285
C           2.93295         4.65522        -1.56222
C           2.28844         3.36035        -1.00574
C           4.49466        -0.41919        -0.51171
C           4.28753        -1.92371        -0.49756
C           5.71296        -2.44109        -0.69983
C           6.14089        -1.62134        -1.89662
C           5.55884        -0.22813        -1.62289
H           3.42332        -1.29311         2.54323
H           2.40686        -0.77236         3.95023
H           0.36020        -1.33569         2.74713
H           1.42341        -2.76469         2.44345
H           0.27351        -1.49191         0.37665
H           1.92639        -1.94034         0.25715
H           0.90558         0.86786         0.57806
H           1.44127         0.98797         2.67114
H           3.15314         1.20185         2.21821
H           3.93124         2.61054         0.22134
H           3.94457         2.51624        -2.88174
H           5.41374         2.38955        -1.83580
H           4.90008         4.86087        -2.59206
H           4.94636         4.53155        -0.82185
H           2.45969         4.88444        -2.54713
H           2.85407         5.55408        -0.91352
H           1.71635         2.93597        -1.86082
H           1.57859         3.51585        -0.16768
H           4.95130        -0.12458         0.45834
H           3.67341        -2.25851        -1.34860
H           3.91995        -2.32742         0.46597
H           5.77133        -3.53789        -0.87357
H           6.34184        -2.17766         0.18648
H           5.59134        -2.05069        -2.76688
H           7.22313        -1.64226        -2.14058
H           5.15323         0.14996        -2.58880
H           6.34172         0.45504        -1.23643
