%chk=blank.chk
# hf/3-21g

Title Card Required

0  1
C           1.48986        -6.11662        -1.39517
N           1.90573        -4.71465        -1.38890
C           2.68685        -4.32528        -2.56730
C           2.57608        -4.16403        -0.24613
C           2.28828        -2.78146         0.15214
C           3.25547        -2.14790         0.97483
C           4.36964        -2.89194         1.44002
C           4.50293        -4.25132         1.21130
C           3.60819        -4.89102         0.36900
N           3.07268        -0.83631         1.43766
C           4.16993         0.09106         1.18251
C           2.44180        -0.78917         2.75118
C           0.85816        -2.27171        -0.05505
C          -0.09839        -3.28167         0.33571
C          -1.46595        -3.19385         0.14262
C          -1.95319        -2.03560        -0.42735
C          -1.08753        -0.97637        -0.74641
C           0.32433        -1.02251        -0.55307
P           1.25051         0.61226        -0.94028
C           1.36170         0.63442        -2.86338
C           1.97774         1.87769        -3.55376
C           3.41681         2.15456        -3.10624
C           4.31321         0.96798        -3.45139
C           3.71407        -0.38051        -3.04018
C           2.22155        -0.53162        -3.37599
C           0.09231         2.09052        -0.57470
C          -0.49039         2.25600         0.85121
C           0.39113         2.92858         1.92031
C           1.32087         4.05196         1.45655
C           1.85273         3.84887         0.05202
C           0.73012         3.45904        -0.89479
H           1.07432        -6.36387        -2.38128
H           0.68608        -6.29150        -0.67038
H           2.30514        -6.82504        -1.21227
H           3.59384        -4.93532        -2.66401
H           2.99224        -3.27549        -2.52516
H           2.08365        -4.45262        -3.47001
H           5.10511        -2.39224         2.06963
H           5.32132        -4.80140         1.66686
H           3.75330        -5.95194         0.17551
H           4.90261        -0.29722         0.46599
H           4.70113         0.36089         2.10208
H           3.76923         1.01434         0.75269
H           2.52315        -1.74139         3.29708
H           1.37665        -0.55772         2.63987
H           2.88630        -0.02023         3.38652
H           0.26231        -4.20911         0.78834
H          -2.11184        -4.01969         0.41556
H          -3.02248        -1.95691        -0.61501
H          -1.55505        -0.09411        -1.16111
H           0.33660         0.52443        -3.23189
H           1.35099         2.76711        -3.48934
H           2.00785         1.70098        -4.63986
H           3.46712         2.35277        -2.02988
H           3.79919         3.05563        -3.60097
H           5.29839         1.09847        -2.97934
H           4.49065         0.97023        -4.53445
H           3.85795        -0.51217        -1.96166
H           4.27835        -1.17791        -3.52827
H           1.83787        -1.48702        -3.01222
H           2.12827        -0.57537        -4.47548
H          -0.75771         1.95767        -1.25689
H          -0.89091         1.31941         1.24892
H          -1.37209         2.91485         0.74228
H           0.98272         2.16898         2.42685
H          -0.27073         3.35944         2.69932
H           2.16951         4.13695         2.14953
H           0.80532         5.01888         1.50030
H           2.63906         3.09122         0.05888
H           2.32018         4.77730        -0.30159
H           1.11756         3.52201        -1.89625
H          -0.05099         4.23312        -0.86417
