%chk=blank.chk
# hf/3-21g

Title Card Required

0  1
B           0.66256        -2.24209        -1.14618
F           0.31547        -3.55265        -1.66157
F           1.40426        -2.39723         0.09711
F           1.48036        -1.53995        -2.12287
F          -0.54813        -1.47962        -0.89535
C           1.40325         1.04374         0.60191
P           3.25364         0.98162         0.78094
H           3.71762         0.56623         2.09139
C           3.86420        -0.08094        -0.62116
C           3.79500         2.68848         0.29287
H           0.97113         0.04566         0.80931
H           1.13216         1.36117        -0.42646
H           0.99026         1.76990         1.33148
H           3.53657        -1.12712        -0.47009
H           4.97253        -0.05298        -0.64502
H           3.46610         0.30120        -1.58328
H           3.40341         3.41997         1.02867
H           3.40169         2.93000        -0.71614
H           4.90319         2.73123         0.27921
