%chk=blank.chk
# hf/3-21g

Title Card Required

0  1
C           0.05526        -4.55123        -2.70491
C          -0.83226        -4.95439        -1.56494
C          -2.05161        -5.57879        -1.93686
C          -2.95551        -6.05745        -0.98946
C          -2.63814        -5.94621         0.34879
C          -1.46961        -5.27925         0.72842
C          -0.55602        -4.69730        -0.20188
C           0.54772        -3.84564         0.38247
C           1.21237        -4.39259         1.52102
C           2.05906        -3.65344         2.35177
C           2.34696        -2.34559         2.03268
C           1.75453        -1.77753         0.90943
C           0.84163        -2.47851         0.07104
P           0.01181        -1.45096        -1.26144
C          -1.37036        -0.69152        -0.28727
C          -2.22100         0.34755        -1.01755
C          -3.05451        -0.21025        -2.17422
C          -3.93384        -1.38073        -1.74544
C          -3.14387        -2.41183        -0.96164
C          -2.35282        -1.78101         0.19726
C           1.30938        -0.20926        -1.76344
C           2.50358        -0.96595        -2.40689
C           2.18525        -1.46710        -3.81625
C           1.83365        -0.31713        -4.74870
C           0.73161         0.57004        -4.18107
C           0.93167         0.94111        -2.71064
H          -0.20486        -5.09777        -3.62166
H           1.10447        -4.75401        -2.49338
H          -0.09692        -3.50443        -2.96243
H          -2.32460        -5.65755        -2.98618
H          -3.89965        -6.49242        -1.30225
H          -3.31438        -6.33102         1.10871
H          -1.29948        -5.16756         1.79679
H           1.00973        -5.42011         1.82371
H           2.46376        -4.09331         3.25954
H           2.99202        -1.74488         2.66937
H           2.00175        -0.73630         0.74073
H          -0.92953        -0.21486         0.60018
H          -1.61799         1.19040        -1.37175
H          -2.91912         0.79015        -0.28974
H          -2.39392        -0.52841        -2.98885
H          -3.69403         0.58040        -2.58077
H          -4.37600        -1.85415        -2.63133
H          -4.76285        -1.02240        -1.12612
H          -2.46597        -2.89408        -1.66680
H          -3.81505        -3.18973        -0.58545
H          -1.85729        -2.54968         0.78087
H          -3.08175        -1.33374         0.88917
H           1.66068         0.29692        -0.86150
H           2.83882        -1.80756        -1.79451
H           3.36253        -0.28274        -2.47179
H           1.34851        -2.16953        -3.80187
H           3.03960        -2.02373        -4.21932
H           1.51894        -0.71212        -5.72228
H           2.73465         0.28203        -4.92939
H          -0.23326         0.07066        -4.29789
H           0.68469         1.48900        -4.77554
H           0.07114         1.50209        -2.35593
H           1.76345         1.66271        -2.68611
