%chk=blank.chk
# hf/3-21g

Title Card Required

0  1
C           3.87998         4.10929        -0.76195
C           3.15425         2.82164        -1.22633
C           1.76764         3.18570        -1.76152
C           3.97580         2.32329        -2.43353
P           3.14701         1.62491         0.17474
C           2.44309         2.37257         1.67976
C           0.95202         2.61365         1.61115
C           0.11984         1.51002         1.90911
C          -1.25969         1.54201         1.73775
C          -1.85662         2.68736         1.25076
C          -1.08808         3.82157         1.05814
C           0.30878         3.85839         1.35376
C           1.01059         5.21786         1.33371
P           0.02794         6.33651         2.41738
C           0.41572         5.91597         4.17919
C           1.91117         5.86139         4.51264
C          -0.26934         6.90628         5.14138
C          -0.18724         4.52250         4.49915
C           0.40024         8.08808         1.93487
C          -0.17760         8.32218         0.51253
C          -0.32822         9.10560         2.83885
C           1.88948         8.44124         1.90770
C           2.57944        -0.08543        -0.22795
C           3.49406        -0.73456        -1.29906
C           2.73342        -1.00371         1.01224
C           1.14704        -0.21622        -0.75752
H           3.89026         4.86673        -1.55500
H           4.92571         3.90687        -0.49553
H           3.41094         4.57325         0.10515
H           1.83102         3.98620        -2.50741
H           1.09211         3.53699        -0.99057
H           1.28146         2.34199        -2.25555
H           4.17206         3.14442        -3.13576
H           3.43465         1.57366        -3.01551
H           4.94694         1.90980        -2.13965
H           2.97251         3.29390         1.92685
H           2.65024         1.71622         2.53527
H           0.55750         0.58225         2.26848
H          -1.85647         0.66220         1.95157
H          -2.92420         2.71966         1.06560
H          -1.58753         4.73144         0.72225
H           1.02210         5.57813         0.30016
H           2.04022         5.17150         1.68363
H           2.40262         6.82824         4.38480
H           2.44892         5.12884         3.90201
H           2.05854         5.56834         5.55995
H           0.32512         7.81443         5.26994
H          -0.37253         6.48703         6.14874
H          -1.27585         7.18503         4.80928
H          -1.17997         4.38194         4.05645
H           0.46177         3.71237         4.15436
H          -0.30018         4.36996         5.57915
H          -1.22764         8.01069         0.44206
H           0.38524         7.78341        -0.25678
H          -0.14453         9.38599         0.24242
H          -1.38332         8.84787         2.98772
H          -0.30305        10.11391         2.40596
H           0.14841         9.20480         3.81546
H           2.44901         7.81810         1.20240
H           2.35464         8.34292         2.89097
H           2.03236         9.48554         1.59929
H           4.55461        -0.68616        -1.02670
H           3.37180        -0.28324        -2.28337
H           3.24437        -1.79564        -1.43545
H           3.78841        -1.21277         1.23074
H           2.24724        -1.97393         0.84344
H           2.29897        -0.58552         1.92161
H           0.95253         0.42676        -1.61547
H           0.39251        -0.01167        -0.00413
H           0.94878        -1.24277        -1.09328
