%chk=blank.chk
# hf/3-21g

Title Card Required

0  1
C           3.49174        -0.33827         0.00024
C           2.75942        -1.50476         0.00071
N           1.41035        -1.54230         0.00106
C           0.70340        -0.38161         0.00062
C           1.39145         0.85721        -0.00023
C           2.79349         0.85975        -0.00021
C           0.69248         2.06731        -0.00110
C          -0.69426         2.06758        -0.00140
C          -1.39346         0.85757        -0.00041
C          -2.79561         0.86051        -0.00066
C          -3.49412        -0.33733         0.00078
C          -2.76211        -1.50400         0.00240
N          -1.41300        -1.54190         0.00228
C          -0.70579        -0.38131         0.00082
H           4.57508        -0.36009         0.00007
H           3.24649        -2.47562         0.00094
H           3.34871         1.79461        -0.00057
H           1.22239         3.01730        -0.00173
H          -1.22383         3.01776        -0.00230
H          -3.35065         1.79551        -0.00199
H          -4.57748        -0.35893         0.00070
H          -3.24930        -2.47476         0.00388
