%chk=blank.chk
# hf/3-21g

Title Card Required

0  1
F           1.05075        -0.34255         0.47084
C           2.36751        -0.21881         0.25919
C           2.81898         0.39316        -0.89985
C           4.19263         0.47415        -1.14235
C           5.12760        -0.05376        -0.23012
C           4.64220        -0.61169         0.96341
C           3.26496        -0.71254         1.19746
P           6.87553        -0.00981        -0.72111
C           7.67563         0.88283         0.64872
C           8.17581         0.27127         1.80901
C           8.83627         1.02310         2.78800
C           8.99758         2.39188         2.61651
F           9.63985         3.10625         3.54942
C           8.50680         3.02584         1.48516
C           7.84735         2.27500         0.50825
C           7.50994        -1.71440        -0.60915
C           6.70573        -2.84595        -0.39279
C           7.25344        -4.13370        -0.37161
C           8.61081        -4.30738        -0.60009
F           9.13084        -5.54108        -0.59905
C           9.43054        -3.21643        -0.84627
C           8.88393        -1.92872        -0.84774
H           2.10539         0.78840        -1.61564
H           4.52688         0.94311        -2.06661
H           5.32530        -1.01423         1.70779
H           2.88722        -1.18814         2.09704
H           8.07238        -0.79949         1.96710
H           9.23317         0.54647         3.67922
H           8.64571         4.09551         1.36388
H           7.48075         2.79020        -0.37867
H           5.63179        -2.76060        -0.25154
H           6.62449        -5.00020        -0.19286
H          10.48577        -3.37223        -1.04737
H           9.54540        -1.08834        -1.05644
