%chk=blank.chk
# hf/3-21g

Title Card Required

0  1
C          -1.82801        -5.21944        -3.60494
C          -1.24723        -4.73108        -2.44848
C           0.14979        -4.67788        -2.31260
C           1.03117        -5.13717        -3.29505
C           0.39652        -5.80889        -4.35724
C          -1.00099        -5.79715        -4.55129
P           2.82653        -5.03036        -2.99022
C           3.86406        -5.57466        -4.41708
C           3.39335        -5.77708        -5.72018
C           4.22760        -6.19606        -6.77286
C           5.57917        -6.38747        -6.57276
C           6.09629        -6.17315        -5.29885
C           5.25032        -5.80785        -4.23748
C           3.42792        -3.32298        -2.49667
C           4.59136        -2.83459        -3.14108
C           5.39378        -1.80809        -2.61522
C           5.12916        -1.29621        -1.35674
C           3.98241        -1.71387        -0.69580
C           3.05222        -2.57001        -1.35180
O           1.70285        -2.35851        -1.00719
C           1.25676        -1.02136        -1.00699
C           1.94174        -0.02950        -1.77960
C           1.66880         1.33320        -1.67657
C           0.60524         1.74246        -0.90719
C          -0.15605         0.78229        -0.24879
C           0.14913        -0.61569        -0.25063
P          -1.01049        -1.52937         0.73901
C          -2.57038        -1.72767        -0.09955
C          -2.71075        -1.91804        -1.48337
C          -3.97623        -2.06244        -2.06380
C          -5.12544        -1.94306        -1.28781
C          -5.00856        -1.70828         0.07790
C          -3.74201        -1.62243         0.66516
C          -0.55110        -2.90686         1.74442
C           0.23403        -2.68445         2.89020
C           0.42554        -3.68271         3.85528
C          -0.15181        -4.93692         3.68933
C          -0.91914        -5.18818         2.55293
C          -1.11865        -4.18258         1.60064
H          -2.90412        -5.20405        -3.73213
H          -1.87903        -4.39080        -1.63752
H           0.53059        -4.29582        -1.36973
H           0.94499        -6.42825        -5.05612
H          -1.43774        -6.27445        -5.42431
H           2.36844        -5.57702        -5.98932
H           3.78914        -6.38619        -7.75450
H           6.22396        -6.67675        -7.39479
H           7.16598        -6.27637        -5.13950
H           5.71163        -5.65738        -3.26076
H           4.91984        -3.24677        -4.09059
H           6.23888        -1.43508        -3.18898
H           5.73980        -0.49780        -0.94292
H           3.70278        -1.21750         0.23239
H           2.75180        -0.29944        -2.45140
H           2.29024         2.05846        -2.19705
H           0.35133         2.79659        -0.82911
H          -1.02815         1.14994         0.30189
H          -1.83405        -1.98757        -2.12226
H          -4.06303        -2.26464        -3.12994
H          -6.10790        -2.02437        -1.74172
H          -5.89570        -1.58350         0.69296
H          -3.68043        -1.44076         1.73528
H           0.65434        -1.69878         3.08532
H           0.99798        -3.46706         4.75379
H          -0.02287        -5.70670         4.44502
H          -1.38970        -6.15909         2.42598
H          -1.77483        -4.40414         0.76258
