%chk=blank.chk
# hf/3-21g

Title Card Required

0  1
C          -1.66107         2.40194         2.13193
C          -0.59984         2.45860         1.04228
C           0.76925         2.06482         1.58330
C           0.80711         0.64919         2.17568
C          -0.28321         0.56989         3.27543
C          -1.67520         1.05936         2.85422
P           0.75267        -0.78713         0.91185
C           2.17312        -0.42423        -0.24874
C           3.58984        -0.65975         0.23367
C           4.14468        -2.02240        -0.17587
C           4.15949        -2.21995        -1.68459
C           2.82876        -1.89842        -2.35711
C           2.03261        -0.73297        -1.76125
C           1.10151        -2.23767         2.03630
C           1.96657        -2.13780         3.13785
C           2.06581        -3.15522         4.10842
C           1.31253        -4.31822         3.99810
C           0.46268        -4.46991         2.91131
C           0.35137        -3.43700         1.96315
O          -0.30443        -3.76738         0.79584
C          -1.63120        -3.50756         0.61313
C          -2.31808        -2.58880         1.44158
C          -3.65723        -2.31502         1.22711
C          -4.32508        -3.02210         0.23607
C          -3.63917        -3.96114        -0.57219
C          -2.24334        -4.18575        -0.46200
P          -1.37233        -5.45586        -1.64768
C           0.44641        -5.11929        -1.95184
C           1.58136        -5.06426        -0.92066
C           2.26227        -6.34248        -0.45266
C           2.73573        -7.19299        -1.61253
C           1.64236        -7.36617        -2.63812
C           0.98962        -6.05275        -3.05512
C          -2.15778        -4.93614        -3.36947
C          -2.15985        -3.43437        -3.64474
C          -1.01197        -2.87862        -4.47466
C          -0.48465        -3.71424        -5.62832
C          -0.76868        -5.20947        -5.63734
C          -1.84974        -5.73153        -4.66190
H          -2.64738         2.59291         1.69230
H          -1.48351         3.20633         2.85675
H          -0.54938         3.47652         0.63989
H          -0.88019         1.80112         0.21211
H           1.02772         2.76950         2.38833
H           1.53487         2.22053         0.82281
H           1.77978         0.56104         2.66867
H           0.04044         1.21739         4.10514
H          -0.37089        -0.43198         3.70857
H          -2.31251         1.14622         3.74415
H          -2.14813         0.31507         2.20819
H           2.07159         0.66238        -0.27167
H           3.67813        -0.52413         1.30624
H           4.23319         0.10878        -0.22190
H           3.56643        -2.80065         0.32267
H           5.17375        -2.10931         0.19872
H           4.43538        -3.25965        -1.90513
H           4.94850        -1.60364        -2.12693
H           2.19239        -2.77827        -2.38561
H           3.03438        -1.68992        -3.41804
H           0.98945        -0.80209        -2.08617
H           2.43245         0.15010        -2.28742
H           2.58168        -1.25717         3.28825
H           2.73900        -3.02040         4.94987
H           1.39470        -5.10174         4.74964
H          -0.09854        -5.39749         2.79099
H          -1.80916        -2.05847         2.24111
H          -4.16722        -1.56400         1.82835
H          -5.39168        -2.84917         0.10189
H          -4.23989        -4.50804        -1.29154
H           0.38438        -4.10784        -2.35967
H           1.38596        -4.46448        -0.05777
H           2.38908        -4.50639        -1.40369
H           1.61075        -6.90921         0.21467
H           3.14913        -6.05803         0.13387
H           3.06266        -8.17243        -1.24750
H           3.61054        -6.72880        -2.08630
H           0.87827        -8.05106        -2.25396
H           2.06568        -7.83838        -3.53380
H           0.20068        -6.38150        -3.70410
H           1.70531        -5.47801        -3.65760
H          -3.19815        -5.21717        -3.14927
H          -2.20361        -2.85293        -2.72083
H          -3.09321        -3.20281        -4.17569
H          -0.17816        -2.62771        -3.81202
H          -1.33741        -1.91303        -4.88499
H           0.60538        -3.57139        -5.67547
H          -0.85086        -3.29100        -6.57234
H           0.17816        -5.73394        -5.50664
H          -1.05021        -5.49862        -6.65251
H          -1.68502        -6.79779        -4.46112
H          -2.77351        -5.71797        -5.26075
