%chk=blank.chk
# hf/3-21g

Title Card Required

0  1
C           6.84671         2.31564        -1.54817
C           5.71487         2.88518        -0.97338
C           4.52714         2.13864        -0.85772
C           4.43671         0.81518        -1.34243
C           5.58879         0.28038        -1.93834
C           6.78519         1.00750        -2.01643
P           2.84743        -0.13644        -1.18297
C           1.98794         0.20027        -2.81118
C           0.89433        -0.56608        -3.23870
C           0.10845        -0.19387        -4.35239
C           0.38109         0.96792        -5.07070
C           1.44227         1.76423        -4.68781
C           2.24276         1.37500        -3.57118
C           3.30382        -1.97226        -0.85167
C           4.61335        -2.20093        -0.35211
C           5.18859        -3.47351        -0.28169
C           4.46654        -4.55491        -0.73160
C           3.11164        -4.38063        -0.99555
C           2.45544        -3.13966        -0.76613
C           1.32771        -3.25138         0.31571
C           1.25415        -2.14202         1.20953
C           0.66052        -2.18676         2.46124
C           0.10910        -3.37614         2.89075
C           0.06486        -4.49137         2.03389
C           0.61435        -4.46980         0.72360
P           0.19404        -5.88665        -0.41584
C          -1.38176        -5.38837        -1.17275
C          -1.58967        -5.60742        -2.54690
C          -2.76802        -5.19424        -3.19116
C          -3.76555        -4.53815        -2.47845
C          -3.54788        -4.22797        -1.14188
C          -2.36425        -4.63539        -0.50438
C           0.24239        -7.65822         0.14699
C          -0.37354        -8.70128        -0.59912
C          -0.09496       -10.09912        -0.39770
C           0.82205       -10.50404         0.56443
C           1.39979        -9.52402         1.35204
C           1.11068        -8.14004         1.15518
H           7.76918         2.88630        -1.63753
H           5.75774         3.91178        -0.61315
H           3.66991         2.61952        -0.38987
H           5.58529        -0.73178        -2.33404
H           7.66831         0.54490        -2.44861
H           0.60122        -1.44402        -2.67520
H          -0.76008        -0.79303        -4.62021
H          -0.24860         1.26638        -5.90728
H           1.66995         2.67660        -5.22458
H           3.03845         2.05792        -3.29427
H           5.21750        -1.38052         0.02788
H           6.19199        -3.61153         0.11056
H           4.89807        -5.55335        -0.74154
H           2.56740        -5.30648        -1.11390
H           1.73395        -1.20275         0.97783
H           0.69618        -1.30573         3.09928
H          -0.29751        -3.42558         3.89711
H          -0.43999        -5.37881         2.40600
H          -0.81306        -6.06997        -3.15290
H          -2.89865        -5.37165        -4.25609
H          -4.69265        -4.24592        -2.96654
H          -4.29145        -3.65344        -0.59349
H          -2.22287        -4.31525         0.52402
H          -1.06700        -8.48794        -1.41021
H          -0.56623       -10.85738        -1.01820
H           1.07647       -11.56140         0.69227
H           2.12820        -9.82912         2.10827
H           1.63464        -7.43728         1.79636
