%chk=blank.chk
# hf/3-21g

Title Card Required

0  1
C           1.72792        -2.19345        -4.63561
C           2.92210        -1.24455        -4.70998
O           4.04324        -2.03547        -5.11896
C           4.68745        -1.39358        -6.20634
C           3.81421        -0.24132        -6.59978
O           2.63240        -0.33506        -5.80388
C           3.21940        -0.46285        -3.38542
C           3.58904         0.90503        -3.56567
C           3.98223         1.73778        -2.52562
C           3.96101         1.25020        -1.23764
C           3.55551        -0.07686        -0.99963
C           3.21036        -0.98145        -2.03489
P           2.86615        -2.71312        -1.55781
C           4.53658        -3.54713        -1.49127
C           5.17228        -3.76111        -2.86631
C           6.11122        -2.63868        -3.29653
C           7.18020        -2.34352        -2.26783
C           6.54554        -2.00001        -0.92846
C           5.56345        -3.06993        -0.45294
C           2.24911        -2.94017         0.20358
C           0.87419        -2.33180         0.53966
C          -0.30267        -3.02645        -0.15120
C          -0.32606        -4.53676         0.08827
C           1.02359        -5.19445        -0.12399
C           2.15297        -4.44360         0.59320
H           1.39485        -2.46924        -5.64339
H           0.87697        -1.73856        -4.12125
H           1.98579        -3.14022        -4.15400
H           4.82098        -2.10882        -7.02382
H           5.68501        -1.05683        -5.90140
H           3.56189        -0.25097        -7.66440
H           4.32317         0.70952        -6.40918
H           3.57286         1.36330        -4.55017
H           4.29891         2.75715        -2.73210
H           4.27606         1.88232        -0.41378
H           3.56957        -0.40841         0.03993
H           4.25253        -4.55885        -1.18146
H           4.40688        -3.95011        -3.62712
H           5.76589        -4.68394        -2.82300
H           5.56401        -1.70776        -3.43973
H           6.56693        -2.89597        -4.25822
H           7.78354        -1.49694        -2.61688
H           7.84900        -3.20463        -2.17121
H           6.04479        -1.03119        -1.00414
H           7.33855        -1.87458        -0.18333
H           5.09479        -2.73978         0.47779
H           6.16972        -3.94520        -0.18102
H           2.97735        -2.47668         0.87718
H           0.84824        -1.25516         0.34521
H           0.71579        -2.44204         1.62542
H          -0.25912        -2.82976        -1.22594
H          -1.24513        -2.59448         0.21293
H          -1.07619        -4.99572        -0.57371
H          -0.67134        -4.73384         1.11154
H           1.23692        -5.26049        -1.19563
H           0.98526        -6.22705         0.24616
H           3.09716        -4.97411         0.43920
H           1.96914        -4.51422         1.67498
