%chk=blank.chk
# hf/3-21g

Title Card Required

0  1
C           1.06697         0.11913        -0.04235
C           0.31976         0.70444         1.15910
P           0.76724         2.44301         1.62099
C           0.36878         3.32986         0.08290
C          -0.92077         3.40407        -0.46018
C          -1.14350         4.04556        -1.68286
C          -0.08065         4.61559        -2.38089
C           1.20523         4.55451        -1.85256
C           1.42723         3.91740        -0.62946
C          -0.55727         2.90090         2.78650
C          -1.09589         1.96337         3.68324
C          -2.08738         2.32250         4.59909
C          -2.54727         3.63313         4.65037
C          -2.00691         4.58584         3.79260
C          -1.01469         4.22370         2.87567
P           2.90774        -0.00100         0.14903
C           3.01563        -1.05945         1.62817
C           2.49333        -2.35849         1.68962
C           2.50502        -3.07510         2.89087
C           3.04148        -2.50416         4.04331
C           3.57290        -1.21875         3.99572
C           3.56022        -0.50261         2.79672
C           3.41270        -1.08093        -1.22821
C           2.70176        -1.12509        -2.43815
C           3.11885        -1.93913        -3.49619
C           4.27460        -2.70501        -3.37172
C           5.01709        -2.64522        -2.19625
C           4.59277        -1.83588        -1.13712
H           0.84497         0.70993        -0.93718
H           0.66331        -0.88450        -0.22657
H           0.48301         0.06627         2.03396
H          -0.75456         0.65753         0.94246
H          -1.76807         2.96146         0.05872
H          -2.14875         4.09468        -2.09406
H          -0.25296         5.10420        -3.33631
H           2.03973         4.99401        -2.39283
H           2.44419         3.87132        -0.24356
H          -0.74135         0.93530         3.69956
H          -2.49115         1.57812         5.28071
H          -3.31475         3.91517         5.36608
H          -2.34676         5.61661         3.84066
H          -0.59678         4.99824         2.23361
H           2.05280        -2.82177         0.80972
H           2.08404        -4.07654         2.92892
H           3.04131        -3.05772         4.97867
H           3.98587        -0.76430         4.89258
H           3.95902         0.51047         2.79030
H           1.81486        -0.51651        -2.59156
H           2.54763        -1.96208        -4.41956
H           4.60063        -3.33642        -4.19351
H           5.93338        -3.22180        -2.10253
H           5.20526        -1.79541        -0.23816
