%chk=blank.chk
# hf/3-21g

Title Card Required

0  1
C4         -0.66950         1.26812         0.00212
C2          0.74158         1.26419        -0.00115
C3          1.44903         0.04307        -0.00369
C           2.95036        -0.08229        -0.00746
C           0.72536        -1.16520        -0.00241
C          -0.66989        -1.17910         0.00113
C          -1.43293        -2.47025         0.00239
C          -1.35424         0.03783         0.00301
Br1          1.69775         2.91819        -0.00178
C          -1.52765         2.50625         0.00406
H           3.48247         0.86963        -0.01062
H           3.27196        -0.63323        -0.89822
H           3.27668        -0.63049         0.88324
H           1.26852        -2.10962        -0.00421
H          -0.76109        -3.33487         0.00394
H          -2.06312        -2.53664        -0.89032
H          -2.06393        -2.53444         0.89469
H          -2.44392         0.03301         0.00528
H          -0.96844         3.44251         0.00615
H          -2.16586         2.51109         0.89460
H          -2.16528         2.51422        -0.88686
