%chk=blank.chk
# hf/3-21g

Title Card Required

0  1
N1          1.01010         0.54380        -0.04810
C2          0.77720        -0.79560         0.19320
N3         -0.52120        -1.03850         0.19900
C4         -1.13950         0.16130        -0.01400
H          -2.21840         0.24250        -0.03510
C5         -0.21250         1.15850        -0.17070
H6         -0.31330         2.21980        -0.34850
C           1.83430        -1.83840         0.43190
C           1.64367        -2.47517         1.81096
C           1.78490        -2.91298        -0.65676
C           2.28220         1.25530        -0.05590
C           2.98470         1.31450        -1.39633
C           2.48386         0.73964        -2.57328
C           3.16875         0.88982        -3.78547
C           4.36565         1.60054        -3.83547
C           4.89963         2.14258        -2.66926
C           4.21684         1.99399        -1.46009
H           2.83169        -1.38998         0.40714
H           0.70206        -3.03339         1.86923
H           1.62591        -1.71399         2.59925
H           2.45905        -3.17201         2.03256
H           0.83413        -3.45878        -0.64042
H           2.59297        -3.63906        -0.51563
H           1.89837        -2.46974        -1.65075
H           2.93650         0.82411         0.70548
H           2.04886         2.28064         0.26082
H           1.55067         0.18265        -2.57918
H           2.75735         0.45950        -4.69611
H           4.88320         1.73238        -4.78226
H           5.84016         2.68574        -2.70192
H           4.65111         2.42717        -0.56033
