%chk=blank.chk
# hf/3-21g

Title Card Required

0  1
N1          0.95760         0.52320         0.13070
C2          0.17617         0.16602         1.20730
N3         -0.72722        -0.73281         0.84657
C4         -0.48829        -1.01082        -0.46741
H          -1.06264        -1.75947        -0.99924
C5          0.54874        -0.25023        -0.93733
H6          1.04024        -0.21851        -1.89917
C           0.31872         0.67710         2.59059
C           2.16390         1.34220         0.06310
C           3.49430         0.65230         0.20440
C           3.58093        -0.72571         0.39422
C           4.81303        -1.28182         0.74247
C           5.92671        -0.45760         0.87298
C           5.76624         0.89225         0.63122
N           4.58289         1.45987         0.30647
H           1.36543         0.70330         2.91059
H          -0.21195         0.01798         3.28625
H          -0.12088         1.67609         2.67918
H           2.08720         2.09620         0.85650
H           2.11460         1.87670        -0.89090
H           2.70269        -1.36060         0.32715
H           4.90062        -2.34753         0.93812
H           6.89064        -0.85726         1.16381
H           6.60298         1.58102         0.71076
