%chk=blank.chk
# hf/3-21g

Title Card Required

0  1
N1         -0.30390        -1.00500         0.14750
C2         -0.72235         0.15877        -0.42589
H          -1.60495         0.23913        -1.04770
N3          0.07997         1.15737        -0.12933
C4          1.05387         0.62248         0.67329
H           1.85916         1.22809         1.06854
C5          0.83178        -0.71904         0.86650
H6          1.36835        -1.46920         1.43068
C          -0.87560        -2.34170         0.05950
C          -2.36460        -2.43400        -0.14540
C          -2.88751        -3.07407        -1.27963
C          -4.26342        -3.27563        -1.40956
C          -5.13189        -2.83011        -0.41525
C          -4.62824        -2.16121         0.69832
C          -3.25232        -1.95739         0.83087
H          -0.58990        -2.86570         0.98280
H          -0.35820        -2.84620        -0.76560
H          -2.22523        -3.44721        -2.05855
H          -4.65741        -3.79624        -2.27904
H          -6.20072        -3.00757        -0.50674
H          -5.30747        -1.81327         1.47311
H          -2.87963        -1.44872         1.71785
