%chk=blank.chk
# hf/3-21g

Title Card Required

0  1
N1         -0.22710        -1.33500         0.45280
C2          0.36336        -0.18466         0.01466
H           0.06773         0.33088        -0.88849
N3          1.32631         0.20103         0.82315
C4          1.35085        -0.72777         1.83056
H           2.06173        -0.66218         2.64446
C5          0.38843        -1.68584         1.62633
H6          0.10472        -2.55941         2.19908
C          -1.30290        -2.09080        -0.18250
C          -1.77190        -1.44950        -1.49800
C          -1.04830        -1.97420        -2.73130
C          -1.15490        -3.48960        -2.79890
C          -0.48480        -4.12700        -1.59030
C          -1.02560        -3.60540        -0.25880
H          -2.14050        -1.98030         0.52230
H          -1.68360        -0.35700        -1.45710
H          -2.84140        -1.66680        -1.62070
H           0.00420        -1.67160        -2.71550
H          -1.49090        -1.53300        -3.63190
H          -0.68220        -3.85520        -3.71770
H          -2.20970        -3.78750        -2.84250
H           0.59590        -3.95580        -1.64470
H          -0.62760        -5.21410        -1.63180
H          -0.34680        -3.91740         0.54560
H          -1.97340        -4.12500        -0.06620
