%chk=blank.chk
# hf/3-21g

Title Card Required

0  1
C          -0.72190         1.12320        -0.00670
N           0.62710         1.23150         0.07020
C           1.33400         0.08300         0.07860
C           0.75360        -1.17130         0.01590
C          -0.63620        -1.25880        -0.06240
C          -1.40280        -0.08880        -0.07680
N1         -2.81930        -0.13160        -0.16200
C2         -3.69251         0.93639        -0.18775
H          -3.37449         1.96848        -0.14324
N3         -4.95061         0.56323        -0.27403
C4         -4.91443        -0.79922        -0.30734
H          -5.82128        -1.38634        -0.37858
C5         -3.61879        -1.25347        -0.24016
H6         -3.23121        -2.26016        -0.24286
H          -1.22050         2.08690        -0.00770
H           2.41220         0.20120         0.13860
H           1.36970        -2.06400         0.02660
H          -1.08010        -2.24770        -0.11170