%chk=blank.chk
# hf/3-21g

Title Card Required

0  1
C          -0.91720         1.15190         0.04430
C           0.46910         1.29590         0.08220
C           1.27160         0.17660        -0.00870
C           0.68420        -1.08070        -0.13840
C          -0.72230        -1.27480        -0.16070
C          -1.54040        -0.11590        -0.07730
N1         -2.97580        -0.09790        -0.13410
C2         -3.80041         0.84648         0.46370
H          -3.42526         1.62830         1.10805
N3         -5.07420         0.67783         0.18494
C4         -5.11107        -0.42515        -0.61005
H          -6.04536        -0.79386        -1.01587
C5         -3.84679        -0.93074        -0.80383
H6         -3.53710        -1.75808        -1.40630
C          -1.20290        -2.72510        -0.23060
C          -2.54287        -2.81453        -0.97457
C          -0.20686        -3.68387        -0.92127
H          -1.48910         2.07620         0.06440
H           0.91440         2.28360         0.16650
H           2.35370         0.27260         0.01670
H           1.36350        -1.92730        -0.21280
H          -1.30148        -3.12526         0.78303
H          -2.49750        -2.30838        -1.94561
H          -3.35743        -2.34821        -0.41576
H          -2.82251        -3.85868        -1.15573
H          -0.19320        -3.55258        -2.01020
H          -0.49400        -4.72606        -0.73940
H           0.81353        -3.54648        -0.54883
