%chk=blank.chk
# hf/3-21g

Title Card Required

0  1
N1         -0.38870        -0.95120         0.06020
C2         -0.27665        -0.16058         1.16928
H          -0.62842        -0.46261         2.14719
N3          0.30881         0.98131         0.88952
C4          0.61948         0.91810        -0.44868
C5          0.20286        -0.28551        -0.97897
H6          0.29046        -0.70882        -1.96971
C           1.33325         2.03031        -1.11407
C          -0.86590        -2.32500         0.04540
C          -2.35580        -2.48820        -0.15850
C          -2.92844        -1.97247        -1.33458
C          -4.27578        -2.18680        -1.63627
C          -5.07134        -2.93040        -0.77060
C          -4.52223        -3.44995         0.39946
C          -3.17363        -3.23472         0.70367
H           1.28894         2.94138        -0.50912
H           0.88804         2.24877        -2.08955
H           2.38613         1.77083        -1.26368
H          -0.57710        -2.78890         0.99560
H          -0.31360        -2.83280        -0.75490
H          -2.32328        -1.40400        -2.03856
H          -4.69855        -1.78383        -2.55249
H          -6.11602        -3.11086        -1.01092
H          -5.14394        -4.03524         1.07331
H          -2.77931        -3.66933         1.61966
