%chk=blank.chk
# hf/3-21g

Title Card Required

0  1
C           1.00270        -0.15920        -0.04860
N1          0.57070         0.69500        -1.15080
C2         -0.07160         0.32740        -2.31600
N3         -0.29040         1.38520        -3.07520
C4          0.19950         2.45800        -2.38720
H           0.14150         3.46050        -2.79000
C5          0.72910         2.05960        -1.18790
H6          1.19280         2.61620        -0.38620
C          -0.46610        -1.05350        -2.69720
C           0.33940         0.23210         1.27500
C           0.76126        -1.63621        -0.36645
H           2.07848        -0.01264         0.08132
H          -0.50330        -1.74670        -1.85510
H           0.22960        -1.44780        -3.44460
H          -1.46540        -1.03760        -3.14540
H          -0.74074         0.05110         1.25911
H           0.49840         1.29359         1.49417
H           0.76068        -0.34932         2.10245
H          -0.29990        -1.84309        -0.54469
H           1.08986        -2.27235         0.46269
H           1.31287        -1.93668        -1.26414
