%chk=blank.chk
# hf/3-21g

Title Card Required

0  1
C           2.38380        -0.70000        -0.07020
C           2.39440         0.68930        -0.03360
C           1.19210         1.38300         0.01100
C          -0.03080         0.69370         0.00830
C          -0.07000        -0.72280        -0.01080
C           1.16310        -1.40400        -0.03850
N1          1.20900        -2.82860        -0.03270
C2          0.31493        -3.70967         0.53997
H          -0.55584        -3.38456         1.09282
N3          0.67192        -4.96823         0.39049
C4          1.83726        -4.92259        -0.31601
H           2.35197        -5.82798        -0.61066
C5          2.20298        -3.62280        -0.57164
H6          3.03634        -3.22070        -1.12718
N          -1.26170        -1.36320        -0.05480
C          -2.40740        -0.64740        -0.07470
C          -2.44780         0.72710        -0.04410
C          -1.23850         1.40410         0.00330
H           3.34070        -1.21630        -0.07370
H           3.33790         1.23000        -0.03230
H           1.21280         2.47090         0.03590
H          -3.31880        -1.23790        -0.12260
H          -3.39240         1.25800        -0.06470
H          -1.24190         2.49180         0.01890
