%chk=blank.chk
# hf/3-21g

Title Card Required

0  1
N1         -0.32310        -1.07290        -0.00350
C2          0.52234        -0.42957         0.85647
H           0.94404        -0.89914         1.73531
N3          0.74805         0.80889         0.47742
C4          0.02544         0.97170        -0.67455
H           0.03275         1.90957        -1.21490
C5         -0.65857        -0.17945        -0.98775
H6         -1.32645        -0.42402        -1.80108
C          -0.81730        -2.44560         0.10760
C          -0.26350        -3.12750         1.35040
C          -1.08958        -3.62608         2.37159
C          -0.54068        -4.24113         3.49902
C           0.83975        -4.36528         3.62580
C           1.67527        -3.86762         2.62953
C           1.12899        -3.24963         1.50316
C          -2.34100        -2.51650        -0.03920
H          -0.41060        -2.97830        -0.76380
H          -2.17132        -3.53832         2.31384
H          -1.19270        -4.61952         4.28293
H           1.26525        -4.84197         4.50460
H           2.75389        -3.95685         2.73122
H           1.80376        -2.86071         0.74275
H          -2.86550        -1.98260         0.75990
H          -2.68200        -3.55800        -0.02860
H          -2.65880        -2.06760        -0.98690
