%chk=blank.chk
# hf/3-21g

Title Card Required

0  1
C          -0.78200         1.07020        -0.04090
C           0.61120         1.17940         0.02570
C           1.39760         0.04020         0.03340
C           0.78560        -1.20770        -0.01680
C          -0.61960        -1.33930        -0.08390
C          -1.43260        -0.18410        -0.10540
N1         -2.87140        -0.19360        -0.20200
C2         -3.71324        -1.10373        -0.80969
H          -3.39312        -2.00073        -1.31270
N3         -4.98507        -0.77481        -0.72598
C4         -5.00561         0.39075        -0.03224
H          -5.93305         0.90344         0.18900
C5         -3.73077         0.76709         0.31020
H6         -3.40413         1.63370         0.86093
C          -1.08360        -2.69530        -0.12190
N          -1.41440        -3.80730        -0.14870
H          -1.32540         2.01040        -0.04280
H           1.07690         2.16200         0.06840
H           2.48100         0.11950         0.08020
H           1.41840        -2.09640        -0.00460
