%chk=blank.chk
# hf/3-21g

Title Card Required

0  1
N1         -0.38870        -0.95120         0.06020
C2         -1.16654         0.16212        -0.09206
H          -2.22015         0.11704        -0.33526
N3         -0.47571         1.26231         0.10100
C4          0.79519         0.84767         0.42372
C5          0.86416        -0.53024         0.41527
H6          1.66930        -1.21588         0.63911
C           1.85253         1.82985         0.75019
C          -0.86590        -2.32500         0.04540
C          -2.35580        -2.48820        -0.15850
C          -2.80019        -3.21556        -1.27677
C          -4.15591        -3.49784        -1.46280
C          -5.08989        -3.06569        -0.52676
C          -4.66918        -2.34394         0.58795
C          -3.31212        -2.05912         0.77468
H           1.57199         2.83311         0.41441
H           2.79552         1.56083         0.26451
H           2.01734         1.86558         1.83177
H          -0.57710        -2.78890         0.99560
H          -0.31360        -2.83280        -0.75490
H          -2.08805        -3.58229        -2.01388
H          -4.47891        -4.06537        -2.33122
H          -6.14335        -3.29717        -0.66204
H          -5.39971        -2.01060         1.32169
H          -3.02256        -1.50565         1.66532
