%chk=blank.chk
# hf/3-21g

Title Card Required

0  1
C           1.06950        -0.11140        -0.13410
N1          2.50760        -0.05100        -0.04620
C2          3.31060         1.06530         0.03620
N3          4.58160         0.70710         0.07400
C4          4.59680        -0.66030         0.03190
H           5.52630        -1.21340         0.05560
C5          3.31940        -1.15380        -0.04240
H6          2.93540        -2.16260        -0.09480
C           2.80680         2.48260         0.05410
C           3.73959         3.39010         0.86001
C           2.66020         3.01101        -1.37316
H           0.65710         0.86430        -0.39220
H           0.68310        -0.44140         0.83370
H           0.79880        -0.82890        -0.91400
H           1.82665         2.51689         0.54423
H           4.74653         3.42311         0.42864
H           3.83123         3.03723         1.89336
H           3.35397         4.41499         0.88832
H           3.62352         3.02461        -1.89600
H           2.26240         4.03143        -1.37060
H           1.97586         2.38688        -1.95841
