%chk=blank.chk
# hf/3-21g

Title Card Required

0  1
C          -1.33790         0.02690         0.17160
N1         -2.72970        -0.15520        -0.08750
C2         -3.44740        -1.33380        -0.35970
N3         -4.74540        -1.06320        -0.45030
C4         -4.87270         0.28780        -0.36410
H          -5.83820         0.77030        -0.45200
C5         -3.65320         0.87180        -0.16420
H6         -3.38560         1.90810        -0.01760
C          -2.92630        -2.69120        -0.62110
C          -3.70279        -3.79820        -0.24588
C          -3.26286        -5.10354        -0.48484
C          -2.02809        -5.32233        -1.08870
C          -1.25497        -4.23875        -1.49329
C          -1.72044        -2.93429        -1.29426
C          -0.48372        -1.09012         0.17362
C           0.83930        -0.95871         0.60782
C           1.32002         0.27923         1.02049
C           0.50409         1.40674         0.93645
C          -0.81113         1.28542         0.48721
H          -4.67362        -3.64321         0.22287
H          -3.89008        -5.94605        -0.20164
H          -1.67798        -6.33862        -1.26204
H          -0.29594        -4.40268        -1.97456
H          -1.11494        -2.11486        -1.67330
H          -0.83416        -2.08351        -0.08874
H           1.48207        -1.83333         0.65398
H           2.33460         0.37048         1.40464
H           0.88362         2.37651         1.24089
H          -1.41317         2.18912         0.40655