%chk=blank.chk
# hf/3-21g

Title Card Required

0  1
C          -0.77040         1.11600        -0.03110
C           0.62130         1.22100         0.04130
C           1.39870         0.07810         0.03920
C           0.77980        -1.16560        -0.02920
C          -0.62780        -1.30330        -0.10260
C          -1.42950        -0.13400        -0.11020
N1         -2.87010        -0.12170        -0.20430
C2         -3.76135        -1.17147        -0.28109
H          -3.48549        -2.20959        -0.25972
N3         -5.01689        -0.79252        -0.38860
C4         -4.98123         0.56817        -0.37631
C5         -3.68120         1.00344        -0.25027
H6         -3.30518         2.01204        -0.20418
C          -6.22047         1.36715        -0.49069
C          -1.12030        -2.72270        -0.16930
H          -1.30850         2.05840        -0.02420
H           1.09070         2.19990         0.09650
H           2.48160         0.14910         0.09110
H           1.41740        -2.04930        -0.02700
H          -7.09584         0.72009        -0.60468
H          -6.17048         2.02727        -1.36223
H          -6.36445         1.98202         0.40308
H          -0.29450        -3.44360        -0.14010
H          -1.64510        -2.90350        -1.11190
H          -1.74910        -2.95170         0.69590