%chk=blank.chk
# hf/3-21g

Title Card Required

0  1
C           2.39340         0.75920         0.00490
C           1.17280         1.43800         0.03230
C          -0.03670         0.72850        -0.00030
C          -0.02900        -0.68010        -0.04240
C           1.19630        -1.33640        -0.06200
C           2.41590        -0.63840        -0.05340
N1          3.65260        -1.34460        -0.12380
C2          3.92822        -2.60374         0.37007
H           3.19454        -3.21993         0.86885
N3          5.17671        -2.96832         0.17431
C4          5.75161        -1.91768        -0.47705
H           6.79441        -1.93553        -0.76762
C5          4.83812        -0.91066        -0.68005
H6          4.95506         0.05006        -1.15676
N          -1.16280        -1.40210        -0.07430
C          -2.33970        -0.73830        -0.07720
C          -2.44830         0.63880        -0.04390
C          -1.27610         1.38250        -0.00050
H           3.29790         1.35970         0.02100
H           1.17260         2.52500         0.06940
H           1.15770        -2.42110        -0.09570
H          -3.22410        -1.36850        -0.11090
H          -3.41970         1.11990        -0.05350
H          -1.33280         2.46750         0.02560
