%chk=blank.chk
# hf/3-21g

Title Card Required

0  1
N1          1.01010         0.54380        -0.04810
C2          0.77720        -0.79560         0.19320
N3         -0.52120        -1.03850         0.19900
C4         -1.13950         0.16130        -0.01400
H          -2.21840         0.24250        -0.03510
C5         -0.21250         1.15850        -0.17070
H6         -0.31330         2.21980        -0.34850
C           1.83430        -1.83840         0.43190
C           1.64367        -2.47517         1.81096
C           1.78490        -2.91298        -0.65676
C           2.28220         1.25530        -0.05590
C           3.48564         0.42912        -0.45953
C           3.42722        -0.92767        -0.80913
C           4.57967        -1.60473        -1.22684
C           5.80362        -0.94248        -1.28653
C           5.88876         0.39346        -0.90313
C           4.73979         1.06967        -0.48722
H           2.83169        -1.38998         0.40714
H           0.70206        -3.03339         1.86923
H           1.62591        -1.71399         2.59925
H           2.45905        -3.17201         2.03256
H           0.83413        -3.45878        -0.64042
H           2.59297        -3.63906        -0.51563
H           1.89837        -2.46974        -1.65075
H           2.43912         1.71576         0.92241
H           2.15997         2.07056        -0.78150
H           2.49155        -1.47986        -0.78237
H           4.51657        -2.65099        -1.51846
H           6.69157        -1.46629        -1.63122
H           6.84445         0.90953        -0.93510
H           4.82825         2.11449        -0.19341
