%chk=blank.chk
# hf/3-21g

Title Card Required

0  1
N          -1.37680        -0.13490        -0.08750
C          -0.76420         1.06680        -0.01910
C           0.60810         1.22560         0.04410
C           1.39990         0.08430         0.04350
C           0.79900        -1.17280        -0.02420
C          -0.59080        -1.24450        -0.09320
N1         -1.24710        -2.50350        -0.18990
C2         -0.69458        -3.76407        -0.20295
H           0.36590        -3.94995        -0.11934
N3         -1.60035        -4.71070        -0.33105
C4         -2.79606        -4.05079        -0.39868
H          -3.73050        -4.58573        -0.51117
C5         -2.60845        -2.69390        -0.30519
H6         -3.29948        -1.86228        -0.31727
H          -1.42830         1.92650        -0.01970
H           1.04960         2.21490         0.09150
H           2.48270         0.17100         0.09130
H           1.43540        -2.04930        -0.02670
