%chk=blank.chk
# hf/3-21g

Title Card Required

0  1
N1         -0.32160        -1.09180         0.09280
C2         -0.78602        -0.05415        -0.68926
H          -1.52608        -0.18272        -1.46586
N3         -0.24379         1.10344        -0.37861
C4          0.60750         0.82796         0.65005
H           1.19918         1.60516         1.11670
C5          0.57871        -0.51133         0.96138
H6          1.12186        -1.06518         1.71088
C          -0.70540        -2.46320         0.02790
C           0.19020        -3.47920         0.36670
C          -0.18830        -4.82950         0.25900
C          -1.45450        -5.22720        -0.19550
C          -2.33880        -4.18280        -0.50800
C          -1.98450        -2.82780        -0.39530
N          -1.80020        -6.55990        -0.38880
C          -3.17618        -7.01936        -0.21674
C          -0.80097        -7.62349        -0.37684
H           1.19700        -3.27530         0.71770
H           0.55380        -5.57030         0.54830
H          -3.32720        -4.39810        -0.90440
H          -2.73470        -2.09530        -0.67800
H          -3.92377        -6.22611        -0.14550
H          -3.25822        -7.61534         0.69916
H          -3.45684        -7.65818        -1.06125
H           0.20181        -7.28894        -0.65822
H          -1.07577        -8.39043        -1.11031
H          -0.75588        -8.09787         0.60904
