%chk=blank.chk
# hf/3-21g

Title Card Required

0  1
C          -1.32190        -0.04580        -0.09270
N1         -2.74920        -0.15540        -0.18850
C2         -3.54230        -1.30480        -0.26190
N3         -4.82580        -0.99540        -0.36970
C4         -4.89460         0.36080        -0.35790
H          -5.84150         0.87960        -0.43800
C5         -3.64260         0.90290        -0.23820
H6         -3.34200         1.93680        -0.19790
C          -3.08890        -2.72160        -0.22690
C          -0.71620         1.21048        -0.01473
C           0.67571         1.29520         0.05705
C           1.43361         0.13429         0.05280
C           0.76405        -1.07086        -0.01959
N          -0.58148        -1.17954        -0.09262
H          -2.02920        -2.88650        -0.05860
H          -3.35560        -3.21090        -1.16930
H          -3.61870        -3.24590         0.57690
H          -1.27751         2.13636        -0.00635
H           1.16199         2.26560         0.11420
H           2.51589         0.16741         0.10465
H           1.30504        -2.01316        -0.02288
