%chk=blank.chk
# hf/3-21g

Title Card Required

0  1
N1          0.95760         0.52320         0.13070
C2          0.80482        -0.83404         0.30910
N3         -0.45997        -1.18535         0.13290
C4         -1.12649        -0.05102        -0.22760
H          -2.17957        -0.07151        -0.48022
C5         -0.27568         1.02171        -0.23884
H6         -0.42731         2.05817        -0.50431
C           1.88692        -1.79474         0.62710
C           2.16390         1.34220         0.06310
C           3.49430         0.65230         0.20440
C           3.88893        -0.35143        -0.67835
C           5.02109        -1.10933        -0.37436
C           5.73946        -0.83653         0.78590
C           5.30511         0.19917         1.58900
N           4.20495         0.94004         1.32681
H           2.78046        -1.61954         0.01917
H           1.55097        -2.81561         0.41502
H           2.14619        -1.74472         1.68981
H           2.08720         2.09620         0.85650
H           2.11460         1.87670        -0.89090
H           3.30556        -0.58529        -1.56371
H           5.32742        -1.92615        -1.02293
H           6.60882        -1.42210         1.05935
H           5.83199         0.46122         2.50256
