%chk=blank.chk
# hf/3-21g

Title Card Required

0  1
C           0.94100         0.22300        -0.00700
N1          0.69500        -0.41210         1.26940
C2          0.77760        -1.75720         1.57370
N3          0.40640        -1.94180         2.83460
C4          0.08980        -0.71330         3.34410
H          -0.25770        -0.59770         4.36040
C5          0.26290         0.25470         2.39100
H6          0.10000         1.32360         2.40190
C           1.10520        -2.86850         0.66130
C           1.75245        -4.04614         1.05701
C           2.09371        -5.02493         0.11494
C           1.75433        -4.85989        -1.22586
C           1.05807        -3.72469        -1.62635
C           0.73697        -2.74068        -0.68911
F           1.28839        -0.68601        -0.96020
F          -0.18125         0.83880        -0.46018
H           1.75243         0.94974         0.07659
H           1.98802        -4.24542         2.09786
H           2.61632        -5.92488         0.43087
H           2.01662        -5.62204        -1.95561
H           0.76283        -3.59923        -2.66497
H           0.18850        -1.85861        -1.01838
