%chk=blank.chk
# hf/3-21g

Title Card Required

0  1
N1          1.01010         0.54380        -0.04810
C2          0.77720        -0.79560         0.19320
N3         -0.52120        -1.03850         0.19900
C4         -1.13950         0.16130        -0.01400
H          -2.21840         0.24250        -0.03510
C5         -0.21250         1.15850        -0.17070
H6         -0.31330         2.21980        -0.34850
C           1.83430        -1.83840         0.43190
C           1.29407        -2.93404         1.35459
C           2.29859        -2.44647        -0.89363
C           2.28220         1.25530        -0.05590
C           2.64340         1.92505        -1.36538
C           2.29798         3.24319        -1.69657
C           2.72135         3.80672        -2.90663
C           3.47963         3.05963        -3.80499
C           3.79660         1.73577        -3.51186
C           3.37548         1.17325        -2.30495
H           2.70994        -1.39683         0.91640
H           0.47513        -3.48927         0.88267
H           0.91030        -2.51029         2.28962
H           2.08184        -3.65176         1.60723
H           1.48310        -2.97507        -1.40126
H           3.11012        -3.16242        -0.72354
H           2.66787        -1.67177        -1.57248
H           3.07428         0.57291         0.26142
H           2.19232         2.02916         0.71815
H           1.71308         3.86229        -1.02150
H           2.46717         4.83826        -3.14115
H           3.82375         3.50769        -4.73368
H           4.37611         1.14552        -4.21645
H           3.63567         0.13694        -2.09474
