%chk=blank.chk
# hf/3-21g

Title Card Required

0  1
N1         -0.32240        -1.13040        -0.03580
C2         -0.92611        -0.08741        -0.68573
H          -1.86244        -0.18909        -1.21846
N3         -0.23518         1.02327        -0.56604
C4          0.85300         0.68730         0.19334
H           1.60236         1.42223         0.45903
C5          0.81902        -0.64477         0.53649
H6          1.49361        -1.24875         1.12570
C          -0.86370        -2.46730         0.04070
C          -0.00890        -3.59030        -0.54930
C          -0.68120        -4.83700         0.00680
C          -1.06640        -4.46050         1.43460
C          -1.12290        -2.93230         1.47730
H          -1.81930        -2.45090        -0.50320
H           1.02900        -3.54720        -0.20030
H           0.00070        -3.57770        -1.64340
H          -0.02960        -5.71500        -0.02880
H          -1.58400        -5.06500        -0.57280
H          -0.31440        -4.82420         2.14410
H          -2.02510        -4.90880         1.71540
H          -0.35970        -2.55390         2.16900
H          -2.09210        -2.57490         1.84140
