%chk=blank.chk
# hf/3-21g

Title Card Required

0  1
C          -0.78200         1.07020        -0.04090
C           0.61120         1.17940         0.02570
C           1.39760         0.04020         0.03340
C           0.78560        -1.20770        -0.01680
C          -0.61960        -1.33930        -0.08390
C          -1.43260        -0.18410        -0.10540
N1         -2.87140        -0.19360        -0.20200
C2         -3.79810         0.71155         0.27575
H          -3.55921         1.61861         0.80515
N3         -5.04316         0.36397         0.02723
C4         -4.95637        -0.80960        -0.64763
H          -5.83950        -1.33770        -0.98399
C5         -3.64264        -1.17198        -0.81170
H6         -3.23463        -2.04018        -1.30240
C          -1.08360        -2.69530        -0.12190
N          -1.41440        -3.80730        -0.14870
H          -1.32540         2.01040        -0.04280
H           1.07690         2.16200         0.06840
H           2.48100         0.11950         0.08020
H           1.41840        -2.09640        -0.00460
