%chk=blank.chk
# hf/3-21g

Title Card Required

0  1
N1          0.91220         0.53620        -0.14600
C2          0.89080        -0.81410        -0.45820
N3         -0.37200        -1.21940        -0.52560
C4         -1.16260        -0.14650        -0.23840
H          -2.24000        -0.23330        -0.20850
C5         -0.39300         0.96380        -0.02450
H6         -0.64760         1.98620         0.21520
C           2.01680        -1.73370        -0.71240
C           3.36598        -1.36293        -0.67565
C           4.38210        -2.31658        -0.81707
C           4.06418        -3.66484        -0.98312
C           2.73096        -4.05565        -1.02404
C           1.72187        -3.09774        -0.89316
C           2.04870         1.44180        -0.02610
C           2.62947         1.51715         1.37103
C           3.66020         0.62829         1.72085
C           4.16869         0.60046         3.02126
C           3.67256         1.47566         3.98360
C           2.69631         2.40480         3.63750
C           2.18821         2.43548         2.33765
H           3.66767        -0.34179        -0.48186
H           5.42341        -2.01277        -0.76436
H           4.85282        -4.40876        -1.05897
H           2.46945        -5.10501        -1.13388
H           0.68296        -3.42563        -0.89763
H           1.71150         2.44082        -0.32936
H           2.80146         1.11279        -0.75116
H           4.05834        -0.07058         0.98727
H           4.94383        -0.11372         3.28710
H           4.04742         1.43696         5.00295
H           2.31601         3.09976         4.38207
H           1.42090         3.17237         2.10933
