%chk=blank.chk
# hf/3-21g

Title Card Required

0  1
N1         -0.32310        -1.07290        -0.00350
C2          0.02484        -0.23718         1.02057
H          -0.01500        -0.52742         2.06213
N3          0.40641         0.93990         0.57637
C4          0.30671         0.86131        -0.78729
H           0.56942         1.69981        -1.41939
C5         -0.15609        -0.37525        -1.17180
H6         -0.36730        -0.79707        -2.14383
C          -0.81730        -2.44560         0.10760
C          -0.26350        -3.12750         1.35040
C           0.60622        -2.48076         2.24434
C           1.09624        -3.14433         3.37140
C           0.72846        -4.46310         3.62172
C          -0.12375        -5.12447         2.74158
C          -0.61231        -4.46422         1.61268
C          -2.34100        -2.51650        -0.03920
H          -0.41060        -2.97830        -0.76380
H           0.92469        -1.45516         2.07722
H           1.77126        -2.63171         4.05284
H           1.11238        -4.97864         4.49773
H          -0.40533        -6.15707         2.93177
H          -1.26974        -5.00609         0.93520
H          -2.86550        -1.98260         0.75990
H          -2.68200        -3.55800        -0.02860
H          -2.65880        -2.06760        -0.98690
