%chk=blank.chk
# hf/3-21g

Title Card Required

0  1
N1          0.95760         0.52320         0.13070
C2          0.25065        -0.11469        -0.86459
N3         -0.88301        -0.60514        -0.38665
C4         -0.94355        -0.22556         0.92223
H          -1.80329        -0.45912         1.53827
C5          0.18023         0.47480         1.27061
H6          0.46982         0.95935         2.19205
C           0.66107        -0.22945        -2.28353
C           2.16390         1.34220         0.06310
C           3.49430         0.65230         0.20440
C           3.88893        -0.35143        -0.67835
C           5.02109        -1.10933        -0.37436
C           5.73946        -0.83653         0.78590
C           5.30511         0.19917         1.58900
N           4.20495         0.94004         1.32681
H           1.04180         0.71881        -2.67665
H          -0.20215        -0.50692        -2.89823
H           1.41867        -1.01099        -2.40321
H           2.08720         2.09620         0.85650
H           2.11460         1.87670        -0.89090
H           3.30556        -0.58529        -1.56371
H           5.32742        -1.92615        -1.02293
H           6.60882        -1.42210         1.05935
H           5.83199         0.46122         2.50256
