%chk=blank.chk
# hf/3-21g

Title Card Required

0  1
C           5.65657         1.44931        -0.33789
N1          4.44016         0.72009        -0.07278
C2          3.14240         1.19730        -0.01980
N3          2.30894         0.17452         0.11675
C4          3.07663        -0.95225         0.21618
H           2.63067        -1.92889         0.34946
C5          4.40656        -0.63744         0.11816
H6          5.29979        -1.24510         0.14684
C           2.70800         2.59890        -0.13670
C           1.45000         2.88210        -0.69050
C           1.00250         4.20060        -0.83660
C           1.80640         5.26840        -0.42870
C           3.04720         4.99430         0.15370
C           3.48170         3.67470         0.31590
C           1.36550         6.69030        -0.60800
H           5.44888         2.31507        -0.96881
H           6.35513         0.79588        -0.86799
H           6.08746         1.75243         0.61990
H           0.80560         2.06470        -1.01180
H           0.02170         4.38080        -1.27150
H           3.68270         5.80930         0.49360
H           4.43080         3.51020         0.81540
H           0.35130         6.75050        -1.01540
H           2.03910         7.20570        -1.30050
H           1.37250         7.21310         0.35390
