%chk=blank.chk
# hf/3-21g

Title Card Required

0  1
N1         -0.31360        -1.10190         0.11330
C2          0.92303        -0.61547         0.48540
H           1.75496        -1.25016         0.75348
N3          0.98152         0.69832         0.46404
C4         -0.25691         1.10034         0.06176
H          -0.50144         2.14929        -0.04977
C5         -1.07284         0.01705        -0.16035
H6         -2.10237        -0.02579        -0.47959
C          -0.71360        -2.46720         0.01410
C           0.18580        -3.49910         0.30900
C          -0.20600        -4.83730         0.17520
C          -1.49600        -5.17600        -0.25600
C          -2.39810        -4.14600        -0.53230
C          -2.01230        -2.80320        -0.39450
C          -1.82140        -6.62930        -0.40340
O          -2.98109        -7.00444        -0.21995
C          -0.75445        -7.64126        -0.73678
H           1.20170        -3.31240         0.64550
H           0.51600        -5.62080         0.40630
H          -3.41250        -4.33890        -0.86310
H          -2.75510        -2.04660        -0.63150
H           0.18989        -7.20586        -1.05588
H          -1.11443        -8.26580        -1.56034
H          -0.57302        -8.26588         0.14219
