%chk=blank.chk
# hf/3-21g

Title Card Required

0  1
C           1.06620        -0.34460         0.22590
N1          2.48520        -0.13960         0.06490
C2          3.17370         1.05370        -0.06280
N3          4.47690         0.80280        -0.05710
C4          4.62160        -0.55520         0.01030
H           5.59900        -1.01900         0.01360
C5          3.39660        -1.16400         0.07350
H6          3.10660        -2.20300         0.13810
C           2.60380         2.40920        -0.14870
C           1.38395         2.67510         0.49329
C           0.80536         3.94611         0.44879
C           1.44130         4.97457        -0.24048
C           2.66313         4.73589        -0.86435
C           3.24685         3.46795        -0.80264
H           0.61610         0.50960         0.73420
H           0.90170        -1.23640         0.83780
H           0.62820        -0.49080        -0.76530
H           0.88045         1.88210         1.04564
H          -0.13568         4.13140         0.95992
H           0.99184         5.96302        -0.28004
H           3.16910         5.54159        -1.39002
H           4.22399         3.33488        -1.25791
