%chk=blank.chk
# hf/3-21g

Title Card Required

0  1
N1         -0.30390        -1.00500         0.14750
C2         -0.57322        -0.00081         1.02914
H          -1.28448        -0.08808         1.84067
N3          0.13472         1.07512         0.76441
C4          0.89835         0.75490        -0.32790
H           1.58444         1.46654        -0.76874
C5          0.64916        -0.53619        -0.72452
H6          1.05111        -1.13879        -1.52716
C          -0.87560        -2.34170         0.05950
C          -2.36460        -2.43400        -0.14540
C          -2.90235        -2.47640        -1.44102
C          -4.26851        -2.69179        -1.63558
C          -5.11323        -2.85497        -0.53959
C          -4.59740        -2.77887         0.75240
C          -3.23123        -2.56279         0.95035
H          -0.58990        -2.86570         0.98280
H          -0.35820        -2.84620        -0.76560
H          -2.25718        -2.37092        -2.31119
H          -4.67212        -2.74982        -2.64354
H          -6.17280        -3.04506        -0.69274
H          -5.25816        -2.90552         1.60683
H          -2.84732        -2.52528         1.96798
