%chk=blank.chk
# hf/3-21g

Title Card Required

0  1
N1         -0.32240        -1.13040        -0.03580
C2          0.00673        -0.49471        -1.20297
H          -0.09644        -0.95886        -2.17495
N3          0.44200         0.72515        -0.98432
C4          0.38779         0.88600         0.37395
H           0.68728         1.81471         0.84303
C5         -0.08621        -0.25264         0.98398
H6         -0.26845        -0.48393         2.02336
C          -0.86370        -2.46730         0.04070
C          -0.00890        -3.59030        -0.54930
C          -0.68120        -4.83700         0.00680
C          -1.06640        -4.46050         1.43460
C          -1.12290        -2.93230         1.47730
H          -1.81930        -2.45090        -0.50320
H           1.02900        -3.54720        -0.20030
H           0.00070        -3.57770        -1.64340
H          -0.02960        -5.71500        -0.02880
H          -1.58400        -5.06500        -0.57280
H          -0.31440        -4.82420         2.14410
H          -2.02510        -4.90880         1.71540
H          -0.35970        -2.55390         2.16900
H          -2.09210        -2.57490         1.84140
