%chk=blank.chk
# hf/3-21g

Title Card Required

0  1
N1         -0.33550        -1.06840         0.00330
C2          0.83555        -0.55811         0.49095
H           1.57924        -1.16112         0.99525
N3          0.93107         0.73230         0.26245
C4         -0.22424         1.06956        -0.39235
H          -0.41494         2.08690        -0.70818
C5         -1.02946        -0.03264        -0.56037
H6         -1.99947        -0.15541        -1.02058
C          -0.77110        -2.45780         0.06000
C          -0.20750        -3.17780         1.28480
C          -2.29340        -2.57620        -0.00440
H          -0.35940        -2.94520        -0.83280
H          -0.57750        -2.74060         2.21880
H           0.88650        -3.11990         1.30150
H          -0.48910        -4.23600         1.27520
H          -2.77270        -2.11770         0.86740
H          -2.59740        -3.62780        -0.04130
H          -2.68650        -2.08110        -0.89930
