%chk=blank.chk
# hf/3-21g

Title Card Required

0  1
N1         -0.30390        -1.00500         0.14750
C2          0.63847        -0.40936        -0.63695
H           1.09690        -0.88708        -1.49353
N3          0.91511         0.80605        -0.21847
C4          0.11645         1.01002         0.87667
H           0.13912         1.93994         1.43002
C5         -0.65661        -0.09907         1.11878
H6         -1.39827        -0.31519         1.87521
C          -0.87560        -2.34170         0.05950
C          -2.36460        -2.43400        -0.14540
C          -2.91973        -3.51555        -0.84659
C          -4.30515        -3.67282        -0.92741
C          -5.15019        -2.74643        -0.31991
C          -4.61184        -1.64879         0.34828
C          -3.22627        -1.48826         0.43029
H          -0.58990        -2.86570         0.98280
H          -0.35820        -2.84620        -0.76560
H          -2.27756        -4.26119        -1.31158
H          -4.72611        -4.52837        -1.44999
H          -6.22810        -2.88213        -0.36427
H          -5.27275        -0.92609         0.82116
H          -2.82767        -0.63326         0.97292
