%chk=blank.chk
# hf/3-21g

Title Card Required

0  1
C          -1.38400        -0.06540        -0.06970
C          -0.74070         1.17660        -0.00550
C           0.64870         1.24210         0.03710
C           1.38500         0.06570         0.01770
C           0.76160        -1.17860        -0.04520
C          -0.63730        -1.25600        -0.09210
N1         -1.28840        -2.52220        -0.16340
C2         -0.69878        -3.76965        -0.17969
H           0.36976        -3.92264        -0.13557
N3         -1.57492        -4.74783        -0.25126
C4         -2.79022        -4.13119        -0.28188
H          -3.71003        -4.69882        -0.34081
C5         -2.64492        -2.76520        -0.22827
H6         -3.38958        -1.98488        -0.23337
F           2.72250         0.12670         0.05930
H          -2.46980        -0.05900        -0.09940
H          -1.32750         2.09240         0.01080
H           1.16080         2.19780         0.08510
H           1.40360        -2.05190        -0.05780
