%chk=blank.chk
# hf/3-21g

Title Card Required

0  1
C          -0.71770         1.18320        -0.03590
C           0.67970         1.23450        -0.03620
C           1.43370         0.05980        -0.06680
C           0.76930        -1.17070        -0.05500
C          -0.62990        -1.22880        -0.05500
C          -1.38670        -0.04890        -0.06830
N1         -2.80910        -0.09310        -0.15040
C2         -3.59144        -1.06201        -0.74231
H          -3.18553        -1.95189        -1.20163
N3         -4.87572        -0.77855        -0.70111
C4         -4.95684         0.42202        -0.05063
C5         -3.70056         0.85104         0.31590
H6         -3.39781         1.74431         0.83688
C          -6.25607         1.09308         0.16999
C           2.93160         0.10880        -0.12100
H          -1.24730         2.13040        -0.02420
H           1.17220         2.20470        -0.02800
H           1.33990        -2.09760        -0.06220
H          -1.08620        -2.21390        -0.06180
H          -7.07964         0.50420        -0.24296
H          -6.26232         2.07572        -0.31345
H          -6.43704         1.23424         1.24001
H           3.29560         1.13880        -0.19960
H           3.29240        -0.43600        -0.99970
H           3.36010        -0.33560         0.78220
