%chk=blank.chk
# hf/3-21g

Title Card Required

0  1
C           0.93940        -0.17410         0.01530
N1          2.37990        -0.08300        -0.00690
C2          3.17750         1.04340         0.01560
N3          4.45170         0.67610         0.10500
C4          4.47180        -0.68980         0.06990
H           5.40180        -1.24160         0.10060
C5          3.19680        -1.18630         0.00230
H6          2.81130        -2.19500        -0.02970
C           2.72940         2.44230        -0.02760
N           3.50059         3.35859         0.60703
C           3.05754         4.63677         0.60518
C           1.88257         5.05152        -0.00384
C           1.10838         4.09872        -0.65104
C           1.53175         2.77311        -0.65894
H           0.47960         0.77880         0.27060
H           0.65760        -0.90230         0.78210
H           0.60240        -0.51700        -0.96600
H           3.69028         5.34627         1.13037
H           1.57891         6.09177         0.02864
H           0.17856         4.37852        -1.13754
H           0.93672         2.00437        -1.14369
