%chk=blank.chk
# hf/3-21g

Title Card Required

0  1
N1          1.01010         0.54380        -0.04810
C2          0.77720        -0.79560         0.19320
N3         -0.52120        -1.03850         0.19900
C4         -1.13950         0.16130        -0.01400
H          -2.21840         0.24250        -0.03510
C5         -0.21250         1.15850        -0.17070
H6         -0.31330         2.21980        -0.34850
C           1.83430        -1.83840         0.43190
C           3.22519        -1.20186         0.36977
C           1.62436        -2.51611         1.78799
C           2.28220         1.25530        -0.05590
C           3.30262         0.74982        -1.05440
C           3.08256        -0.32372        -1.92936
C           4.05890        -0.69158        -2.86344
C           5.26898        -0.00456        -2.92592
C           5.52185         1.03705        -2.03704
C           4.54839         1.40509        -1.10575
H           1.78955        -2.61644        -0.33565
H           3.37430        -0.48168         1.18264
H           3.37435        -0.66838        -0.57589
H           4.00553        -1.96581         0.45338
H           1.73169        -1.80383         2.61459
H           2.35851        -3.31588         1.93458
H           0.62540        -2.95761         1.85530
H           2.69675         1.25550         0.95498
H           2.03665         2.29627        -0.30525
H           2.15027        -0.88212        -1.91781
H           3.86641        -1.51086        -3.55293
H           6.01561        -0.28003        -3.66640
H           6.47017         1.56624        -2.07355
H           4.76589         2.22349        -0.42111
