%chk=blank.chk
# hf/3-21g

Title Card Required

0  1
C           5.74058         1.29995        -0.33035
N1          4.52488         0.57003        -0.06442
C2          3.22780         1.04620        -0.00430
N3          2.39587         0.02304         0.13414
C4          3.16387        -1.10465         0.22240
H           2.71869        -2.08273         0.35295
C5          4.49201        -0.78913         0.11642
H6          5.38541        -1.39732         0.13533
C           2.78460         2.44490        -0.12100
C           1.52010         2.71520        -0.66730
C           1.06000         4.02870        -0.81680
C           1.85850         5.10830        -0.42050
C           3.10670         4.84280         0.16020
C           3.55380         3.52660         0.32310
C           1.40440         6.53540        -0.60300
F           0.17471         6.65316        -1.17590
F           1.33612         7.21583         0.57472
F           2.25382         7.24902        -1.39480
H           5.53062         2.17105        -0.95340
H           6.43602         0.65000        -0.86930
H           6.17651         1.59560         0.62759
H           0.88170         1.88940        -0.98110
H           0.07330         4.19790        -1.24580
H           3.73690         5.66530         0.49610
H           4.50750         3.36920         0.81770
