%chk=blank.chk
# hf/3-21g

Title Card Required

0  1
C           2.39340         0.75920         0.00490
C           1.17280         1.43800         0.03230
C          -0.03670         0.72850        -0.00030
C          -0.02900        -0.68010        -0.04240
C           1.19630        -1.33640        -0.06200
C           2.41590        -0.63840        -0.05340
N1          3.65260        -1.34460        -0.12380
C2          3.83467        -2.71076        -0.19967
H           3.01879        -3.41785        -0.23308
N3          5.10321        -3.05767        -0.22050
C4          5.79019        -1.88158        -0.16152
H           6.87263        -1.85927        -0.15853
C5          4.92590        -0.81386        -0.10916
H6          5.12873         0.24437        -0.05526
N          -1.16280        -1.40210        -0.07430
C          -2.33970        -0.73830        -0.07720
C          -2.44830         0.63880        -0.04390
C          -1.27610         1.38250        -0.00050
H           3.29790         1.35970         0.02100
H           1.17260         2.52500         0.06940
H           1.15770        -2.42110        -0.09570
H          -3.22410        -1.36850        -0.11090
H          -3.41970         1.11990        -0.05350
H          -1.33280         2.46750         0.02560
