%chk=blank.chk
# hf/3-21g

Title Card Required

0  1
C          -1.32290        -0.19280        -0.12180
N1         -2.74160        -0.23110        -0.20500
C2         -3.60510        -1.32300        -0.30250
N3         -4.85780        -0.92660        -0.44250
C4         -4.83660         0.43230        -0.37910
H          -5.74310         1.01790        -0.46660
C5         -3.55500         0.88310        -0.20560
H6         -3.16870         1.89070        -0.14790
C          -3.23940        -2.75830        -0.16030
C          -0.65284         0.81619         0.55778
N           0.69683         0.88313         0.67406
C           1.41208        -0.10673         0.09950
C           0.84089        -1.16514        -0.58388
C          -0.54783        -1.21112        -0.69117
H          -2.30690        -2.91590         0.38450
H          -3.17220        -3.22940        -1.14570
H          -4.02060        -3.27930         0.40500
H          -1.16569         1.60617         1.09580
H           2.49008        -0.02669         0.20948
H           1.46179        -1.93544        -1.02842
H          -0.99269        -2.02942        -1.25036
