%chk=blank.chk
# hf/3-21g

Title Card Required

0  1
C           5.70990         1.42183         0.12387
N1          4.49097         0.66695        -0.03388
C2          3.17940         1.11090        -0.07890
N3          2.37191         0.05945        -0.21145
C4          3.16705        -1.05052        -0.27425
H           2.74765        -2.04150        -0.38879
C5          4.48640        -0.69904        -0.17731
H6          5.39527        -1.28328        -0.19187
C           2.70100         2.50100         0.00670
N           3.52270         3.47310        -0.45990
C           3.11130         4.75970        -0.35980
C           1.87870         5.11510         0.17550
C           1.03860         4.10860         0.63800
C           1.45330         2.78590         0.55540
C           4.05140         5.81550        -0.85770
H           5.54320         2.35400         0.65797
H           6.13097         1.60321        -0.86786
H           6.40891         0.82645         0.71969
H           1.57660         6.15560         0.23850
H           0.06910         4.35270         1.06380
H           0.81710         1.98290         0.91620
H           5.00200         5.37200        -1.17140
H           4.26200         6.54020        -0.06510
H           3.61570         6.33540        -1.71620
