%chk=blank.chk
# hf/3-21g

Title Card Required

0  1
C          -0.72190         1.12320        -0.00670
N           0.62710         1.23150         0.07020
C           1.33400         0.08300         0.07860
C           0.75360        -1.17130         0.01590
C          -0.63620        -1.25880        -0.06240
C          -1.40280        -0.08880        -0.07680
N1         -2.81930        -0.13160        -0.16200
C2         -3.66098        -1.11390         0.31801
H          -3.31346        -1.99760         0.83437
N3         -4.92904        -0.85797         0.08131
C4         -4.93242         0.33523        -0.57819
H          -5.85577         0.79824        -0.90254
C5         -3.65083         0.80470        -0.74149
H6         -3.29272         1.70651        -1.21280
H          -1.22050         2.08690        -0.00770
H           2.41220         0.20120         0.13860
H           1.36970        -2.06400         0.02660
H          -1.08010        -2.24770        -0.11170
