%chk=blank.chk
# hf/3-21g

Title Card Required

0  1
N1          0.95760         0.52320         0.13070
C2         -0.10911         0.56918         1.00092
N3         -0.90706        -0.47081         0.81161
C4         -0.31726        -1.23660        -0.15101
H          -0.74580        -2.18173        -0.46130
C5          0.83826        -0.64803        -0.59043
H6          1.58235        -0.96799        -1.30575
C          -0.34403         1.60713         2.03169
C           2.16390         1.34220         0.06310
C           3.49430         0.65230         0.20440
C           4.18168         0.16640        -0.90639
C           5.29077        -0.65708        -0.70534
C           5.69699        -0.95831         0.59116
C           4.98562        -0.40686         1.63814
N           3.89996         0.38189         1.47323
H           0.56982         1.84823         2.58437
H          -1.07416         1.24478         2.76354
H          -0.75266         2.51567         1.57711
H           2.08720         2.09620         0.85650
H           2.11460         1.87670        -0.89090
H           3.84033         0.37380        -1.91602
H           5.82012        -1.08461        -1.55309
H           6.54004        -1.61232         0.77827
H           5.26292        -0.60177         2.67060
