%chk=blank.chk
# hf/3-21g

Title Card Required

0  1
N1          0.91220         0.53620        -0.14600
C2          0.89080        -0.81410        -0.45820
N3         -0.37200        -1.21940        -0.52560
C4         -1.16260        -0.14650        -0.23840
H          -2.24000        -0.23330        -0.20850
C5         -0.39300         0.96380        -0.02450
H6         -0.64760         1.98620         0.21520
C           2.01680        -1.73370        -0.71240
C           3.36598        -1.36293        -0.67565
C           4.38210        -2.31658        -0.81707
C           4.06418        -3.66484        -0.98312
C           2.73096        -4.05565        -1.02404
C           1.72187        -3.09774        -0.89316
C           2.04870         1.44180        -0.02610
C           2.62947         1.51715         1.37103
C           4.00195         1.78168         1.51658
C           4.60059         1.77595         2.77832
C           3.83341         1.53027         3.91379
C           2.46191         1.32892         3.79297
C           1.86138         1.33626         2.53279
H           3.66767        -0.34179        -0.48186
H           5.42341        -2.01277        -0.76436
H           4.85282        -4.40876        -1.05897
H           2.46945        -5.10501        -1.13388
H           0.68296        -3.42563        -0.89763
H           1.71150         2.44082        -0.32936
H           2.80146         1.11279        -0.75116
H           4.62323         1.96873         0.64247
H           5.66917         1.95063         2.87425
H           4.30207         1.49810         4.89380
H           1.85644         1.15082         4.67822
H           0.78766         1.16796         2.48067
