%chk=blank.chk
# hf/3-21g

Title Card Required

0  1
N1          0.91220         0.53620        -0.14600
C2          0.89080        -0.81410        -0.45820
N3         -0.37200        -1.21940        -0.52560
C4         -1.16260        -0.14650        -0.23840
H          -2.24000        -0.23330        -0.20850
C5         -0.39300         0.96380        -0.02450
H6         -0.64760         1.98620         0.21520
C           2.01680        -1.73370        -0.71240
C           3.36598        -1.36293        -0.67565
C           4.38210        -2.31658        -0.81707
C           4.06418        -3.66484        -0.98312
C           2.73096        -4.05565        -1.02404
C           1.72187        -3.09774        -0.89316
C           2.04870         1.44180        -0.02610
C           2.87493         1.56144        -1.29020
C           3.53450         2.77452        -1.55149
C           4.23713         2.96318        -2.74360
C           4.31149         1.93571        -3.68008
C           3.71725         0.70705        -3.40912
C           3.01617         0.51592        -2.21720
H           3.66767        -0.34179        -0.48186
H           5.42341        -2.01277        -0.76436
H           4.85282        -4.40876        -1.05897
H           2.46945        -5.10501        -1.13388
H           0.68296        -3.42563        -0.89763
H           2.68608         1.07009         0.78587
H           1.65389         2.41601         0.28319
H           3.48371         3.59474        -0.83754
H           4.71620         3.91736        -2.94752
H           4.83437         2.08972        -4.62028
H           3.78480        -0.10286        -4.13124
H           2.56018        -0.45712        -2.04639
