%chk=blank.chk
# hf/3-21g

Title Card Required

0  1
N1         -0.31990        -1.14100         0.07230
C2         -0.78680        -0.09174        -0.69251
H          -1.53861        -0.20360        -1.46031
N3         -0.22950         1.05718        -0.37802
C4          0.63619         0.76392         0.63329
H           1.24233         1.53130         1.09776
C5          0.60067        -0.57767         0.93167
H6          1.15192        -1.14186         1.66705
C          -0.71610        -2.50960         0.00080
C           0.18930        -3.53320         0.32070
C          -0.19370        -4.87630         0.21800
C          -1.48180        -5.21280        -0.20320
C          -2.39320        -4.19900        -0.50640
C          -2.01530        -2.85470        -0.40300
C          -1.86210        -6.58830        -0.33420
N          -2.16660        -7.70200        -0.44680
H           1.20290        -3.33090         0.65500
H           0.52570        -5.65590         0.46450
H          -3.40230        -4.44570        -0.83330
H          -2.76040        -2.10690        -0.65910
